5L_3x3_(1\1\1)                          
   1.00000000000000     
     8.4506998061999994    0.0000000000000000    0.0000000000000000
    -4.2253499030999997    7.3185207118999998    0.0000000000000000
     0.0000000000000000    0.0000000000000000   24.2000007629000002
   Ir   Pd   Pt   Rh   Ru   H 
     9     8     9     9     9     1
Direct
  0.5575095499252035  0.1086029634296028  0.0396889640059207
  0.5444710098098722  0.1091371535707087  0.3113880998452273
  0.7790717753544074  0.2316025349553404  0.2170287927259559
  0.0002235230419469  0.3448830158657059  0.3934677432048481
  0.3253936470293648  0.3309445401058336  0.1269241260649492
  0.8777421161236094  0.4439425853186399  0.3057142096533521
  0.9986145387519634  0.6601330593169737  0.1259073411979361
  0.3293041064421026  0.6481412455832332  0.3924950726934689
  0.8931943762171513  0.7810631254062118  0.3071564998882350
  0.0027745954617042  0.0080782939840508  0.3982199324636597
  0.2262111912966495  0.1144963551692294  0.0324010891950412
  0.6524347103983645  0.9985341021698616  0.4001246457096793
  0.2247035121056063  0.4418124650058896  0.3037641933591682
  0.8905894485963779  0.4430694001652950  0.0333920678213724
  0.1092433717956680  0.8866130887415542  0.2171987288780831
  0.4511339234539710  0.8929388239748860  0.2180533423734821
  0.7738673846503641  0.8867518670148843  0.2171740484164568
  0.0026322198647575  0.0039874095423473  0.1266460727908040
  0.8847286224224505  0.1063568323871200  0.3067967652021393
  0.1052556495782019  0.5510602557947414  0.2164003467536191
  0.9974896436402838  0.6578132426709228  0.3965170349390497
  0.3345153407957915  0.6688069925777386  0.1282100739081213
  0.5568258369679080  0.7826573471178613  0.0357187497057748
  0.6657879860294041  0.6637730089127206  0.1282454611960992
  0.6570636341597285  0.6610526890298882  0.3964135114587184
  0.8883186538647951  0.7724392146427794  0.0362675066663496
  0.3374992601333717  0.0044722859458040  0.1266713869078572
  0.4455227192832843  0.2325105215173296  0.2179380641711233
  0.8849544508630374  0.1198472544378774  0.0384673567246391
  0.3386291736841072  0.3358420393019695  0.3946492499251751
  0.5444131455935485  0.4366417927308377  0.0383194829127360
  0.5587134810551281  0.4418176529457351  0.3058458256415561
  0.6684966854266856  0.3294821422467212  0.1277197775281093
  0.2268753897289270  0.7753320687496320  0.0381182120978406
  0.2358358593587121  0.8010082410951328  0.3126692269832292
  0.2273142317166694  0.1040532034500311  0.3086529247517854
  0.1238866819924108  0.2305920337379608  0.2168038670331848
  0.6770548245015633  0.0208811140302299  0.1256044555203165
  0.9972409856873065  0.3228425753603146  0.1275372443260255
  0.2263066722926551  0.4449692450012863  0.0418865295636306
  0.4476618446084012  0.5432144816106185  0.2173955667622692
  0.6783594279899202  0.3394321714553200  0.3940367427133608
  0.7688537469296830  0.5463547011462209  0.2172924968339054
  0.5544740585284884  0.7810204997470999  0.3078508066657251
  0.4465263486510784  0.2300639734372597  0.4243602943452458
 
  0.00000000E+00  0.00000000E+00  0.00000000E+00
  0.00000000E+00  0.00000000E+00  0.00000000E+00
  0.00000000E+00  0.00000000E+00  0.00000000E+00
  0.00000000E+00  0.00000000E+00  0.00000000E+00
  0.00000000E+00  0.00000000E+00  0.00000000E+00
  0.00000000E+00  0.00000000E+00  0.00000000E+00
  0.00000000E+00  0.00000000E+00  0.00000000E+00
  0.00000000E+00  0.00000000E+00  0.00000000E+00
  0.00000000E+00  0.00000000E+00  0.00000000E+00
  0.00000000E+00  0.00000000E+00  0.00000000E+00
  0.00000000E+00  0.00000000E+00  0.00000000E+00
  0.00000000E+00  0.00000000E+00  0.00000000E+00
  0.00000000E+00  0.00000000E+00  0.00000000E+00
  0.00000000E+00  0.00000000E+00  0.00000000E+00
  0.00000000E+00  0.00000000E+00  0.00000000E+00
  0.00000000E+00  0.00000000E+00  0.00000000E+00
  0.00000000E+00  0.00000000E+00  0.00000000E+00
  0.00000000E+00  0.00000000E+00  0.00000000E+00
  0.00000000E+00  0.00000000E+00  0.00000000E+00
  0.00000000E+00  0.00000000E+00  0.00000000E+00
  0.00000000E+00  0.00000000E+00  0.00000000E+00
  0.00000000E+00  0.00000000E+00  0.00000000E+00
  0.00000000E+00  0.00000000E+00  0.00000000E+00
  0.00000000E+00  0.00000000E+00  0.00000000E+00
  0.00000000E+00  0.00000000E+00  0.00000000E+00
  0.00000000E+00  0.00000000E+00  0.00000000E+00
  0.00000000E+00  0.00000000E+00  0.00000000E+00
  0.00000000E+00  0.00000000E+00  0.00000000E+00
  0.00000000E+00  0.00000000E+00  0.00000000E+00
  0.00000000E+00  0.00000000E+00  0.00000000E+00
  0.00000000E+00  0.00000000E+00  0.00000000E+00
  0.00000000E+00  0.00000000E+00  0.00000000E+00
  0.00000000E+00  0.00000000E+00  0.00000000E+00
  0.00000000E+00  0.00000000E+00  0.00000000E+00
  0.00000000E+00  0.00000000E+00  0.00000000E+00
  0.00000000E+00  0.00000000E+00  0.00000000E+00
  0.00000000E+00  0.00000000E+00  0.00000000E+00
  0.00000000E+00  0.00000000E+00  0.00000000E+00
  0.00000000E+00  0.00000000E+00  0.00000000E+00
  0.00000000E+00  0.00000000E+00  0.00000000E+00
  0.00000000E+00  0.00000000E+00  0.00000000E+00
  0.00000000E+00  0.00000000E+00  0.00000000E+00
  0.00000000E+00  0.00000000E+00  0.00000000E+00
  0.00000000E+00  0.00000000E+00  0.00000000E+00
  0.00000000E+00  0.00000000E+00  0.00000000E+00
