step                                    
   1.00000000000000     
     8.4506998061999994    0.0000000000000000    0.0000000000000000
    -4.2253499030999997    7.3185207118999998    0.0000000000000000
     0.0000000000000000    0.0000000000000000   24.2000007629000002
   Ir   Pd   Pt   Rh   Ru   H 
     9    10    10    10     9     1
Direct
  0.5550806776453665  0.1074333862198337  0.0382194503392287
  0.5474623399814766  0.1129776532182211  0.3080936455572687
  0.7734072513876665  0.2302455607086978  0.2158585170733459
  0.0131323305709449  0.3511562492890841  0.3953235958288736
  0.3246759972623711  0.3299929284447626  0.1253729517908194
  0.8750158789547449  0.4431101843215719  0.3051668327362657
  0.9961173812851487  0.6575538054390242  0.1246386641637042
  0.3298792142061638  0.6549687671237988  0.3910193617824723
  0.8864051140518641  0.7773731184298355  0.3054877160676641
  0.0042136186664358  0.0099683095344694  0.3984392812910601
  0.2245259950530109  0.1139462030497598  0.0307384923089245
  0.3384474946956676  0.0120723286974016  0.4000832373680756
  0.6498505510107467 -0.0096761217681462  0.3983194160698511
  0.2239618759778115  0.4430245583599732  0.3025833733412218
  0.8882647516878752  0.4421131348330439  0.0318819626569401
  0.1065519266941711  0.8846364013095109  0.2150151090298170
  0.4491377329079577  0.8896127455406022  0.2159423007787025
  0.7743729344927206  0.8894411776112128  0.2155294626424602
  0.7766160246631233  0.8798073583848864  0.4837745332605063
  0.0021095161375475  0.0047088591578392  0.1249715049759742
  0.8858796240770519  0.1099045754177074  0.3051421966725492
  0.1012988842727247  0.5466996018601878  0.2153832047667799
  0.0115712025421002  0.6711035004927894  0.3969001521169173
  0.3320256437505857  0.6665871379230364  0.1269874285079178
  0.5547098437561522  0.7817878953190190  0.0343092653118534
  0.6659207319570025  0.6640392552500110  0.1266343838490340
  0.6499721597443316  0.6525645948947166  0.3967780820902742
  0.8865128931312912  0.7723017866456038  0.0348739834183108
  0.7886727389617241  0.5523603186151507  0.4818344292670407
  0.3357263396386377  0.0036709482783881  0.1249797890612012
  0.4425189408147039  0.2311358494418843  0.2163663752465280
  0.8819461537856460  0.1174718489764978  0.0366520573505923
  0.3286624087927887  0.3338199393199890  0.3929998260032008
  0.5430845390232898  0.4362689739009766  0.0365963468187543
  0.5585132843291029  0.4433249224353554  0.3060850073596104
  0.6662792525797540  0.3289776457906733  0.1264240994456353
  0.2261937469072547  0.7750196843175755  0.0369939986760303
  0.2241267456352259  0.7888068948501412  0.3078908982476731
  0.8161811269553313  0.2440553928269128  0.4772839686873089
  0.2166791535177672  0.0989460755070740  0.3054251264580803
  0.1255063234477483  0.2324217120187570  0.2152109817248508
  0.6772966606933319  0.0218450855416486  0.1243319818745241
  0.9959008622352133  0.3229046022656182  0.1250271291867305
  0.2249593044090637  0.4455455766368346  0.0403229718078854
  0.4482044379917942  0.5450164914903346  0.2148037286221482
  0.6761354253416495  0.3323925015832500  0.3955825485703746
  0.7650282279403401  0.5447233584535782  0.2160505776165925
  0.5571296461413960  0.7735471495558648  0.3057447013884501
  0.8730250002941795  0.4373795354850401  0.5195253597899692
 
  0.00000000E+00  0.00000000E+00  0.00000000E+00
  0.00000000E+00  0.00000000E+00  0.00000000E+00
  0.00000000E+00  0.00000000E+00  0.00000000E+00
  0.00000000E+00  0.00000000E+00  0.00000000E+00
  0.00000000E+00  0.00000000E+00  0.00000000E+00
  0.00000000E+00  0.00000000E+00  0.00000000E+00
  0.00000000E+00  0.00000000E+00  0.00000000E+00
  0.00000000E+00  0.00000000E+00  0.00000000E+00
  0.00000000E+00  0.00000000E+00  0.00000000E+00
  0.00000000E+00  0.00000000E+00  0.00000000E+00
  0.00000000E+00  0.00000000E+00  0.00000000E+00
  0.00000000E+00  0.00000000E+00  0.00000000E+00
  0.00000000E+00  0.00000000E+00  0.00000000E+00
  0.00000000E+00  0.00000000E+00  0.00000000E+00
  0.00000000E+00  0.00000000E+00  0.00000000E+00
  0.00000000E+00  0.00000000E+00  0.00000000E+00
  0.00000000E+00  0.00000000E+00  0.00000000E+00
  0.00000000E+00  0.00000000E+00  0.00000000E+00
  0.00000000E+00  0.00000000E+00  0.00000000E+00
  0.00000000E+00  0.00000000E+00  0.00000000E+00
  0.00000000E+00  0.00000000E+00  0.00000000E+00
  0.00000000E+00  0.00000000E+00  0.00000000E+00
  0.00000000E+00  0.00000000E+00  0.00000000E+00
  0.00000000E+00  0.00000000E+00  0.00000000E+00
  0.00000000E+00  0.00000000E+00  0.00000000E+00
  0.00000000E+00  0.00000000E+00  0.00000000E+00
  0.00000000E+00  0.00000000E+00  0.00000000E+00
  0.00000000E+00  0.00000000E+00  0.00000000E+00
  0.00000000E+00  0.00000000E+00  0.00000000E+00
  0.00000000E+00  0.00000000E+00  0.00000000E+00
  0.00000000E+00  0.00000000E+00  0.00000000E+00
  0.00000000E+00  0.00000000E+00  0.00000000E+00
  0.00000000E+00  0.00000000E+00  0.00000000E+00
  0.00000000E+00  0.00000000E+00  0.00000000E+00
  0.00000000E+00  0.00000000E+00  0.00000000E+00
  0.00000000E+00  0.00000000E+00  0.00000000E+00
  0.00000000E+00  0.00000000E+00  0.00000000E+00
  0.00000000E+00  0.00000000E+00  0.00000000E+00
  0.00000000E+00  0.00000000E+00  0.00000000E+00
  0.00000000E+00  0.00000000E+00  0.00000000E+00
  0.00000000E+00  0.00000000E+00  0.00000000E+00
  0.00000000E+00  0.00000000E+00  0.00000000E+00
  0.00000000E+00  0.00000000E+00  0.00000000E+00
  0.00000000E+00  0.00000000E+00  0.00000000E+00
  0.00000000E+00  0.00000000E+00  0.00000000E+00
  0.00000000E+00  0.00000000E+00  0.00000000E+00
  0.00000000E+00  0.00000000E+00  0.00000000E+00
  0.00000000E+00  0.00000000E+00  0.00000000E+00
  0.00000000E+00  0.00000000E+00  0.00000000E+00
