5L_3x3_(1\1\1)                          
   1.00000000000000     
     8.4506998061999994    0.0000000000000000    0.0000000000000000
    -4.2253499030999997    7.3185207118999998    0.0000000000000000
     0.0000000000000000    0.0000000000000000   24.2000007629000002
   Ir   Pd   Pt   Rh   Ru   H 
     9     9     8     9     9     1
Direct
  0.5574475800367142  0.1082053242227725  0.0401935065575386
  0.5431999031132800  0.1034823929060730  0.3094267235876457
  0.7766117363564837  0.2324337407258819  0.2181937077848986
  0.0062866851305477  0.3574426455146179  0.3921523637481784
  0.3262045733971351  0.3314500649157181  0.1270260406942206
  0.8858403882435638  0.4625319743389751  0.3081130689322760
  0.9982318656832521  0.6585615055130023  0.1261171915064724
  0.3296890941202903  0.6550985980609640  0.3913776284182776
  0.8897856531071821  0.7781017053589288  0.3080982603298795
  0.0001132302461979  0.0107011247377429  0.3972803776138303
  0.2270546089302531  0.1152795301428009  0.0322001707193463
  0.3373568758833206  0.0045286826747693  0.4002860612028991
  0.6570496925314353  0.9897255312382608  0.4008318625675810
  0.2272346838474189  0.4436334897712922  0.3036607208127106
  0.8898826186236557  0.4429831184960435  0.0334368315671670
  0.1066767864515233  0.8839386627601531  0.2163432242921824
  0.4482136921387067  0.8897122759491051  0.2180957310169278
  0.7762141578914467  0.8907878227583149  0.2167654985980639
  0.0041642107959360  0.0059698580973168  0.1263240450860316
  0.8841441198615247  0.1090141679784629  0.3061776838638674
  0.1037160478025989  0.5474757537129410  0.2164469764286840
  0.3340383492330113  0.6674694053880857  0.1284129240478236
  0.5577064159337883  0.7840044083895659  0.0362184231688174
  0.6672714294859630  0.6651997031926581  0.1284356087459342
  0.6525593840053645  0.6566290902152773  0.3957847087110482
  0.8885855822843282  0.7728977176363210  0.0364200554605838
  0.3369374600895405  0.0041135467207446  0.1264301332167858
  0.4425857201009234  0.2291783567862603  0.2182911300802005
  0.8821750529694925  0.1184790625283299  0.0386527027153686
  0.3264216051285926  0.3336884770411159  0.3955100974501360
  0.5448762448177090  0.4379819735088425  0.0384201381932740
  0.5599866377410579  0.4379944744322260  0.3063736789425714
  0.6680769820207754  0.3304844868196734  0.1281966361818593
  0.2278449107503314  0.7762405527289471  0.0382612123872676
  0.2114499490496800  0.7824427766312235  0.3113044664935101
  0.2192431899137412  0.0993559371136646  0.3063904418003222
  0.1257606919706737  0.2323833560602301  0.2167934793785482
  0.6768920065454486  0.0220894411689970  0.1273155526862668
  0.9981619953771396  0.3246261351387641  0.1265637841563982
  0.2259550694782632  0.4447965356280498  0.0419158143661732
  0.4502874629608049  0.5450196911907945  0.2175812238073090
  0.6914944073226221  0.3272239519432135  0.3928638322729540
  0.7663532919692341  0.5448013567722850  0.2170846854196138
  0.5588082484320099  0.7774702710905279  0.3065705994018448
  0.5631680430363161  0.4266396944652090  0.4286182901105104
 
  0.00000000E+00  0.00000000E+00  0.00000000E+00
  0.00000000E+00  0.00000000E+00  0.00000000E+00
  0.00000000E+00  0.00000000E+00  0.00000000E+00
  0.00000000E+00  0.00000000E+00  0.00000000E+00
  0.00000000E+00  0.00000000E+00  0.00000000E+00
  0.00000000E+00  0.00000000E+00  0.00000000E+00
  0.00000000E+00  0.00000000E+00  0.00000000E+00
  0.00000000E+00  0.00000000E+00  0.00000000E+00
  0.00000000E+00  0.00000000E+00  0.00000000E+00
  0.00000000E+00  0.00000000E+00  0.00000000E+00
  0.00000000E+00  0.00000000E+00  0.00000000E+00
  0.00000000E+00  0.00000000E+00  0.00000000E+00
  0.00000000E+00  0.00000000E+00  0.00000000E+00
  0.00000000E+00  0.00000000E+00  0.00000000E+00
  0.00000000E+00  0.00000000E+00  0.00000000E+00
  0.00000000E+00  0.00000000E+00  0.00000000E+00
  0.00000000E+00  0.00000000E+00  0.00000000E+00
  0.00000000E+00  0.00000000E+00  0.00000000E+00
  0.00000000E+00  0.00000000E+00  0.00000000E+00
  0.00000000E+00  0.00000000E+00  0.00000000E+00
  0.00000000E+00  0.00000000E+00  0.00000000E+00
  0.00000000E+00  0.00000000E+00  0.00000000E+00
  0.00000000E+00  0.00000000E+00  0.00000000E+00
  0.00000000E+00  0.00000000E+00  0.00000000E+00
  0.00000000E+00  0.00000000E+00  0.00000000E+00
  0.00000000E+00  0.00000000E+00  0.00000000E+00
  0.00000000E+00  0.00000000E+00  0.00000000E+00
  0.00000000E+00  0.00000000E+00  0.00000000E+00
  0.00000000E+00  0.00000000E+00  0.00000000E+00
  0.00000000E+00  0.00000000E+00  0.00000000E+00
  0.00000000E+00  0.00000000E+00  0.00000000E+00
  0.00000000E+00  0.00000000E+00  0.00000000E+00
  0.00000000E+00  0.00000000E+00  0.00000000E+00
  0.00000000E+00  0.00000000E+00  0.00000000E+00
  0.00000000E+00  0.00000000E+00  0.00000000E+00
  0.00000000E+00  0.00000000E+00  0.00000000E+00
  0.00000000E+00  0.00000000E+00  0.00000000E+00
  0.00000000E+00  0.00000000E+00  0.00000000E+00
  0.00000000E+00  0.00000000E+00  0.00000000E+00
  0.00000000E+00  0.00000000E+00  0.00000000E+00
  0.00000000E+00  0.00000000E+00  0.00000000E+00
  0.00000000E+00  0.00000000E+00  0.00000000E+00
  0.00000000E+00  0.00000000E+00  0.00000000E+00
  0.00000000E+00  0.00000000E+00  0.00000000E+00
  0.00000000E+00  0.00000000E+00  0.00000000E+00
