step                                    
   1.00000000000000     
     8.4506998061999994    0.0000000000000000    0.0000000000000000
    -4.2253499030999997    7.3185207118999998    0.0000000000000000
     0.0000000000000000    0.0000000000000000   24.2000007629000002
   Ir   Pd   Pt   Rh   Ru   H 
    10    10     9     9    10     1
Direct
  0.5537105748833278  0.1037482055820878  0.0395377491606021
  0.5480734040015405  0.1056480474124264  0.3082880512375122
  0.7720615229717235  0.2247669785260224  0.2176931018923591
  0.0223998940950886  0.3464761722808255  0.3966614834404205
  0.3230202271133176  0.3255059500963051  0.1264798315953251
  0.8680940130923005  0.4329661905128525  0.3097789166018760
  0.9940325902045588  0.6526805206708371  0.1254684970170181
  0.3268889331838340  0.6504581966813013  0.3913055423233751
  0.8874984502039227  0.7702907207862330  0.3071725966076144
  0.8006208270282191  0.2391202449576879  0.4696253098067757
 -0.0012145829632383  0.0009295983515084  0.3994341444883892
  0.2237102770739768  0.1106836010356821  0.0317095981567367
  0.3289108734486187  0.0002852738416034  0.4006777459428854
  0.6385195381066624  0.9789391871941943  0.3979658245246054
  0.2214230800698244  0.4378285165808112  0.3032166253100034
  0.8866440033057462  0.4378190358725961  0.0326527746532117
  0.1050130875668637  0.8793685319970839  0.2157673193008644
  0.4490626308379896  0.8851452431491839  0.2161235941264972
  0.7735072564547774  0.8832828601004747  0.2166527270209075
  0.7785622764042807  0.9157125676805260  0.4876318797301412
  0.0006913461345191  0.0006627872534039  0.1258997408153869
  0.8840244153343468  0.1034470257685008  0.3068210047769595
  0.0976514293726342  0.5409328167803564  0.2165468264167001
  0.0201632857622205  0.6672804013508944  0.3987650684697564
  0.3287978655381619  0.6614796491963093  0.1281768936873932
  0.5525849941273168  0.7772353801428721  0.0361843930519818
  0.6650973898220516  0.6587886356445073  0.1278288249013236
  0.6480703621666704  0.6548780495670642  0.4014844934882401
  0.8853247197737826  0.7685804626848773  0.0358476178905030
  0.3343061650856020  0.0002887938079707  0.1260879713426812
  0.4405910756787915  0.2264387220737366  0.2177109166171366
  0.8796353915435282  0.1130317810777325  0.0376132700634645
  0.3255282931592996  0.3290867754404121  0.3940487882011402
  0.5418147327531335  0.4314662072827047  0.0379811444775772
  0.5578447038741842  0.4428614977002176  0.3067197385832089
  0.6670371894878960  0.3252322971654314  0.1278683786895909
  0.2243596788667056  0.7716343273901288  0.0381059096413894
  0.2239076662555853  0.7841729158423026  0.3072183839260769
  0.2136272051736080  0.0924208092445670  0.3055890399681289
  0.1229602609570735  0.2281141600460299  0.2161252064387327
  0.6761938495866299  0.0172847973943848  0.1255021353127677
  0.9938065014305327  0.3186684621400024  0.1259841151326289
  0.2234856479188630  0.4412580287808572  0.0414342537198194
  0.4462834744629394  0.5391129847733135  0.2156379440829224
  0.6206418131193641  0.3233288541362919  0.3984642361725932
  0.7630282467514765  0.5399987823379769  0.2178108166056647
  0.5567672258195017  0.7700276671065950  0.3067809513194559
  0.8006036142194981  0.5231298689300862  0.4734795960587137
  0.6755925717407633  0.6564608946302333  0.4780390362109415
 
  0.00000000E+00  0.00000000E+00  0.00000000E+00
  0.00000000E+00  0.00000000E+00  0.00000000E+00
  0.00000000E+00  0.00000000E+00  0.00000000E+00
  0.00000000E+00  0.00000000E+00  0.00000000E+00
  0.00000000E+00  0.00000000E+00  0.00000000E+00
  0.00000000E+00  0.00000000E+00  0.00000000E+00
  0.00000000E+00  0.00000000E+00  0.00000000E+00
  0.00000000E+00  0.00000000E+00  0.00000000E+00
  0.00000000E+00  0.00000000E+00  0.00000000E+00
  0.00000000E+00  0.00000000E+00  0.00000000E+00
  0.00000000E+00  0.00000000E+00  0.00000000E+00
  0.00000000E+00  0.00000000E+00  0.00000000E+00
  0.00000000E+00  0.00000000E+00  0.00000000E+00
  0.00000000E+00  0.00000000E+00  0.00000000E+00
  0.00000000E+00  0.00000000E+00  0.00000000E+00
  0.00000000E+00  0.00000000E+00  0.00000000E+00
  0.00000000E+00  0.00000000E+00  0.00000000E+00
  0.00000000E+00  0.00000000E+00  0.00000000E+00
  0.00000000E+00  0.00000000E+00  0.00000000E+00
  0.00000000E+00  0.00000000E+00  0.00000000E+00
  0.00000000E+00  0.00000000E+00  0.00000000E+00
  0.00000000E+00  0.00000000E+00  0.00000000E+00
  0.00000000E+00  0.00000000E+00  0.00000000E+00
  0.00000000E+00  0.00000000E+00  0.00000000E+00
  0.00000000E+00  0.00000000E+00  0.00000000E+00
  0.00000000E+00  0.00000000E+00  0.00000000E+00
  0.00000000E+00  0.00000000E+00  0.00000000E+00
  0.00000000E+00  0.00000000E+00  0.00000000E+00
  0.00000000E+00  0.00000000E+00  0.00000000E+00
  0.00000000E+00  0.00000000E+00  0.00000000E+00
  0.00000000E+00  0.00000000E+00  0.00000000E+00
  0.00000000E+00  0.00000000E+00  0.00000000E+00
  0.00000000E+00  0.00000000E+00  0.00000000E+00
  0.00000000E+00  0.00000000E+00  0.00000000E+00
  0.00000000E+00  0.00000000E+00  0.00000000E+00
  0.00000000E+00  0.00000000E+00  0.00000000E+00
  0.00000000E+00  0.00000000E+00  0.00000000E+00
  0.00000000E+00  0.00000000E+00  0.00000000E+00
  0.00000000E+00  0.00000000E+00  0.00000000E+00
  0.00000000E+00  0.00000000E+00  0.00000000E+00
  0.00000000E+00  0.00000000E+00  0.00000000E+00
  0.00000000E+00  0.00000000E+00  0.00000000E+00
  0.00000000E+00  0.00000000E+00  0.00000000E+00
  0.00000000E+00  0.00000000E+00  0.00000000E+00
  0.00000000E+00  0.00000000E+00  0.00000000E+00
  0.00000000E+00  0.00000000E+00  0.00000000E+00
  0.00000000E+00  0.00000000E+00  0.00000000E+00
  0.00000000E+00  0.00000000E+00  0.00000000E+00
  0.00000000E+00  0.00000000E+00  0.00000000E+00
