total                                   
   1.00000000000000     
     8.4506998061999994    0.0000000000000000    0.0000000000000000
    -4.2253499030999997    7.3185207118999998    0.0000000000000000
     0.0000000000000000    0.0000000000000000   24.2000007629000002
   Ir   Pd   Pt   Rh   Ru   H 
     9     9     9     9     9     1
Direct
  0.6141954237803904  0.7232328848484458  0.1250672328842776
  0.5916147024911326  0.4826656497854535  0.3901655116915457
  0.9004039531333711  0.7234444420924071  0.4097035008601106
  0.1418759292705825  0.7607395721003604  0.0483853708965124
  0.6365067675653189  0.7007267531822184  0.2970641609315538
  0.9359670810898910  0.3853194037337547  0.2025116054631240
  0.7604113651639772  0.0920425761529550  0.1367021214408393
  0.1509809755323901  0.7436522772236598  0.3489656216010111
  0.4140750921686341  0.8767084653481854  0.1149925117302050
  0.9399972404196436  0.1339451822569379  0.3903572089744213
  0.2592663562376017  0.3613019515942794  0.4324370813977932
  0.0951471812238210  0.1927414956418408  0.1827963562110335
  0.9915879048032898  0.9312585992277742  0.1010839524278001
  0.8625066642179247  0.8409103076443604  0.2067203270504951
  0.0799256125509619  0.2691262296133764  0.0522557101085589
  0.7594388809965654  0.6051665807489426  0.0442942135164473
  0.6330759503695641  0.8178919060421411  0.4030908063392687
  0.8254427584167948  0.0829903110503923  0.2722288613462474
  0.7445511928384997  0.9324594767039766  0.0334186116422754
  0.2702040849765902  0.1083578904718548  0.0291460424302128
  0.1972230242715116  0.2542250548098070  0.2925062442740375
  0.6876717547347322  0.2332402035771274  0.3766207328036657
  0.4638214983652273  0.9578819927378034  0.0018639398538225
  0.7109707478048150  0.4846756022212887  0.1620355609657379
  0.3246119774624158  0.1112713411641582  0.3682842518553990
  0.2317199794410783  0.9606077154316593  0.2543888591023872
  0.4366934620369571  0.4828643662482568  0.2152716260191168
  0.4174899433773399  0.3865652217282039  0.0949327802693983
  0.2361520699239709  0.5330755499901325  0.1422464314310598
  0.3330059759430405  0.1013199627312125  0.1546044484142527
  0.3805098634829759  0.6340026825166881  0.0407234961319749
  0.5923459537904697  0.1704361394860880  0.2234856992788971
  0.9318223967215904  0.4512741148673008  0.0913110140923113
  0.8871545244591728  0.5991001703607303  0.2704303863623330
  0.0039650412932284  0.4779565485866639  0.4182898601967133
  0.4878542300120060  0.9210580009793694  0.3188317093596843
  0.0893254664436780  0.7286349010172302  0.1645643549944227
  0.5407822098805546  0.8490306963978522  0.2142216073474345
  0.7915010060390668  0.2475864444470709  0.0046417493883809
 -0.0040767553436228  0.4004387762871574  0.3183765329719416
  0.5505992535367310  0.3519822966254755  0.2941276851478763
  0.2244130121211404  0.6343979830299956  0.2487192816101615
  0.9696551952818344  0.9076440481199985  0.3246757043600518
  0.5942891407043961  0.2243809592266497  0.0789024868717420
  0.3314328127505834  0.5714999967116448  0.3474501580904236
  0.4933811552181499  0.5656572142371479  0.4395365658630483
 
  0.00000000E+00  0.00000000E+00  0.00000000E+00
  0.00000000E+00  0.00000000E+00  0.00000000E+00
  0.00000000E+00  0.00000000E+00  0.00000000E+00
  0.00000000E+00  0.00000000E+00  0.00000000E+00
  0.00000000E+00  0.00000000E+00  0.00000000E+00
  0.00000000E+00  0.00000000E+00  0.00000000E+00
  0.00000000E+00  0.00000000E+00  0.00000000E+00
  0.00000000E+00  0.00000000E+00  0.00000000E+00
  0.00000000E+00  0.00000000E+00  0.00000000E+00
  0.00000000E+00  0.00000000E+00  0.00000000E+00
  0.00000000E+00  0.00000000E+00  0.00000000E+00
  0.00000000E+00  0.00000000E+00  0.00000000E+00
  0.00000000E+00  0.00000000E+00  0.00000000E+00
  0.00000000E+00  0.00000000E+00  0.00000000E+00
  0.00000000E+00  0.00000000E+00  0.00000000E+00
  0.00000000E+00  0.00000000E+00  0.00000000E+00
  0.00000000E+00  0.00000000E+00  0.00000000E+00
  0.00000000E+00  0.00000000E+00  0.00000000E+00
  0.00000000E+00  0.00000000E+00  0.00000000E+00
  0.00000000E+00  0.00000000E+00  0.00000000E+00
  0.00000000E+00  0.00000000E+00  0.00000000E+00
  0.00000000E+00  0.00000000E+00  0.00000000E+00
  0.00000000E+00  0.00000000E+00  0.00000000E+00
  0.00000000E+00  0.00000000E+00  0.00000000E+00
  0.00000000E+00  0.00000000E+00  0.00000000E+00
  0.00000000E+00  0.00000000E+00  0.00000000E+00
  0.00000000E+00  0.00000000E+00  0.00000000E+00
  0.00000000E+00  0.00000000E+00  0.00000000E+00
  0.00000000E+00  0.00000000E+00  0.00000000E+00
  0.00000000E+00  0.00000000E+00  0.00000000E+00
  0.00000000E+00  0.00000000E+00  0.00000000E+00
  0.00000000E+00  0.00000000E+00  0.00000000E+00
  0.00000000E+00  0.00000000E+00  0.00000000E+00
  0.00000000E+00  0.00000000E+00  0.00000000E+00
  0.00000000E+00  0.00000000E+00  0.00000000E+00
  0.00000000E+00  0.00000000E+00  0.00000000E+00
  0.00000000E+00  0.00000000E+00  0.00000000E+00
  0.00000000E+00  0.00000000E+00  0.00000000E+00
  0.00000000E+00  0.00000000E+00  0.00000000E+00
  0.00000000E+00  0.00000000E+00  0.00000000E+00
  0.00000000E+00  0.00000000E+00  0.00000000E+00
  0.00000000E+00  0.00000000E+00  0.00000000E+00
  0.00000000E+00  0.00000000E+00  0.00000000E+00
  0.00000000E+00  0.00000000E+00  0.00000000E+00
  0.00000000E+00  0.00000000E+00  0.00000000E+00
  0.00000000E+00  0.00000000E+00  0.00000000E+00
