5L_3x3_(1\1\1)                          
   1.00000000000000     
     8.4506998061999994    0.0000000000000000    0.0000000000000000
    -4.2253499030999997    7.3185207118999998    0.0000000000000000
     0.0000000000000000    0.0000000000000000   24.2000007629000002
   Ir   Pd   Pt   Rh   Ru   H 
     9     9     9     9     9     1
Direct
  0.5570410729922766  0.1088584553638677  0.0394541008594968
  0.5494602998151767  0.1095824595972239  0.3090832432844309
  0.7777069321107923  0.2312391323841019  0.2170237684355424
  0.0031939767500063  0.3473754412783364  0.3937040238266098
  0.3258993402510780  0.3315753863960498  0.1268062950583676
  0.8767899402910242  0.4449437904410947  0.3061706775621639
  0.9976330745925263  0.6584313661656060  0.1257548768820089
  0.3316100402892975  0.6557304398197643  0.3932499710444096
  0.8889111746152247  0.7784259697347350  0.3065628971774665
  0.0030351637053638  0.0063916974070031  0.3989240038959534
  0.2261718930690717  0.1149521444859417  0.0320489842286582
  0.3371025034159505  0.0015310848478324  0.4023362390489165
  0.6662250816231829  0.0011734371726127  0.4010286389586424
  0.2262057224218930  0.4437051316140453  0.3041815097725587
  0.8900820019993063  0.4432840913933903  0.0329432139610334
  0.1072595208547422  0.8848825532634684  0.2162305359219479
  0.4519637243164112  0.8922784433144372  0.2173828570302188
  0.7742601716543048  0.8875156468039818  0.2166785559130248
  0.0030074021588197  0.0054508299661277  0.1262975309092546
  0.8863542755357682  0.1064608818053188  0.3063034952188683
  0.1034566892720385  0.5478395145035048  0.2162839681849668
  0.0003095610610304  0.6608968767263710  0.3973898982688300
  0.3335873699765685  0.6680369249374136  0.1282145555886881
  0.5565849265629897  0.7828263161853355  0.0356323249014703
  0.6655002678093579  0.6634827071344290  0.1281164233266064
  0.6580219391852900  0.6602644925518446  0.3966099907815953
  0.8886506139671584  0.7732000664160592  0.0362392445283275
  0.3378656792700471  0.0050389352735217  0.1262966012728627
  0.4442852133853185  0.2315116866098191  0.2179554466398326
  0.8837815856425352  0.1188436582657068  0.0378483497189170
  0.3338706053732410  0.3382954805485130  0.3960097431371234
  0.5447039894647721  0.4369971287278291  0.0381605673899351
  0.5575070369442974  0.4402867240249286  0.3064276289739797
  0.6682835135112239  0.3295277154015148  0.1276801777228122
  0.2267773002134732  0.7757232492281586  0.0380132606709888
  0.2301604175553020  0.7926975150925497  0.3083637703536068
  0.2232816025692007  0.1029965678985729  0.3058335467170756
  0.1255053198752071  0.2319009009696319  0.2167114353787561
  0.6772513884688603  0.0214401090393220  0.1254709743522370
  0.9972263128730983  0.3231392165054479  0.1262836436624204
  0.2267457235708927  0.4461502648880767  0.0416571705983916
  0.4479008387947094  0.5436239470226172  0.2174820756597322
  0.6802573376745555  0.3375450862680697  0.3948967385807263
  0.7677984490850089  0.5458159933850453  0.2172255367008881
  0.5564218665767151  0.7789071662526698  0.3075126023946927
  0.4404415148548831  0.2351236318880688  0.4333987945050005
 
  0.00000000E+00  0.00000000E+00  0.00000000E+00
  0.00000000E+00  0.00000000E+00  0.00000000E+00
  0.00000000E+00  0.00000000E+00  0.00000000E+00
  0.00000000E+00  0.00000000E+00  0.00000000E+00
  0.00000000E+00  0.00000000E+00  0.00000000E+00
  0.00000000E+00  0.00000000E+00  0.00000000E+00
  0.00000000E+00  0.00000000E+00  0.00000000E+00
  0.00000000E+00  0.00000000E+00  0.00000000E+00
  0.00000000E+00  0.00000000E+00  0.00000000E+00
  0.00000000E+00  0.00000000E+00  0.00000000E+00
  0.00000000E+00  0.00000000E+00  0.00000000E+00
  0.00000000E+00  0.00000000E+00  0.00000000E+00
  0.00000000E+00  0.00000000E+00  0.00000000E+00
  0.00000000E+00  0.00000000E+00  0.00000000E+00
  0.00000000E+00  0.00000000E+00  0.00000000E+00
  0.00000000E+00  0.00000000E+00  0.00000000E+00
  0.00000000E+00  0.00000000E+00  0.00000000E+00
  0.00000000E+00  0.00000000E+00  0.00000000E+00
  0.00000000E+00  0.00000000E+00  0.00000000E+00
  0.00000000E+00  0.00000000E+00  0.00000000E+00
  0.00000000E+00  0.00000000E+00  0.00000000E+00
  0.00000000E+00  0.00000000E+00  0.00000000E+00
  0.00000000E+00  0.00000000E+00  0.00000000E+00
  0.00000000E+00  0.00000000E+00  0.00000000E+00
  0.00000000E+00  0.00000000E+00  0.00000000E+00
  0.00000000E+00  0.00000000E+00  0.00000000E+00
  0.00000000E+00  0.00000000E+00  0.00000000E+00
  0.00000000E+00  0.00000000E+00  0.00000000E+00
  0.00000000E+00  0.00000000E+00  0.00000000E+00
  0.00000000E+00  0.00000000E+00  0.00000000E+00
  0.00000000E+00  0.00000000E+00  0.00000000E+00
  0.00000000E+00  0.00000000E+00  0.00000000E+00
  0.00000000E+00  0.00000000E+00  0.00000000E+00
  0.00000000E+00  0.00000000E+00  0.00000000E+00
  0.00000000E+00  0.00000000E+00  0.00000000E+00
  0.00000000E+00  0.00000000E+00  0.00000000E+00
  0.00000000E+00  0.00000000E+00  0.00000000E+00
  0.00000000E+00  0.00000000E+00  0.00000000E+00
  0.00000000E+00  0.00000000E+00  0.00000000E+00
  0.00000000E+00  0.00000000E+00  0.00000000E+00
  0.00000000E+00  0.00000000E+00  0.00000000E+00
  0.00000000E+00  0.00000000E+00  0.00000000E+00
  0.00000000E+00  0.00000000E+00  0.00000000E+00
  0.00000000E+00  0.00000000E+00  0.00000000E+00
  0.00000000E+00  0.00000000E+00  0.00000000E+00
  0.00000000E+00  0.00000000E+00  0.00000000E+00
