step                                    
   1.00000000000000     
     8.4506998061999994    0.0000000000000000    0.0000000000000000
    -4.2253499030999997    7.3185207118999998    0.0000000000000000
     0.0000000000000000    0.0000000000000000   24.2000007629000002
   Ir   Pd   Pt   Rh   Ru   H 
     9    10     9    10    10     1
Direct
  0.5518804837827712  0.1092884290898100  0.0385832959806985
  0.5420581758293940  0.1102795125125058  0.3076009945748130
  0.7690378366522559  0.2296479119824610  0.2166337800633280
  0.0201571030225549  0.3515533731505811  0.3966290445770687
  0.3207794941171332  0.3305375484082438  0.1255404633116274
  0.8675427421167287  0.4389036528463711  0.3072162730153978
  0.9928158666067008  0.6585309409702290  0.1247008650260061
  0.3266657154496924  0.6566744305884944  0.3919401118546347
  0.8836183060624002  0.7779933496258997  0.3058729657825877
  0.0003126703332166  0.0071577810408007  0.3987367964181052
  0.2214600244334532  0.1166268120150405  0.0311910484962492
  0.3277403819129446  0.0024872077728302  0.3999509541626417
  0.6460414410380469 -0.0026473761740213  0.3985781274256856
  0.2236712192761806  0.4454406873964636  0.3027431498044468
  0.8849656972096859  0.4437523062669212  0.0319160667669691
  0.1022995361899338  0.8842652221993872  0.2152977068550629
  0.4449246632460916  0.8881982796688891  0.2158571350915086
  0.7706961449435261  0.8903315547993266  0.2160233228091474
  0.7684173390705268  0.8904714333333758  0.4845811821060186
 -0.0018166099026860  0.0058670167828257  0.1254274610842439
  0.8851896291880798  0.1125997036930732  0.3061724853846843
  0.0962138187773528  0.5463786158514236  0.2159968554245014
  0.0043532431107144  0.6675086355666240  0.3975977358680040
  0.3271459612105364  0.6669227805055419  0.1272326513135679
  0.5506748644707941  0.7826720007116914  0.0350352923644250
  0.6632290434030392  0.6648923598711383  0.1269420827275271
  0.6518528981400841  0.6594300884397396  0.3972765387985834
  0.8833724246358976  0.7742119147419220  0.0351969951822242
  0.3322042691792878  0.0048089876230991  0.1252433194961340
  0.4389752715823676  0.2313151982285507  0.2164300486223822
  0.8777074572336525  0.1185659277559969  0.0369611819621992
  0.3338136807611820  0.3401415969224476  0.3944905849633936
  0.5402649350583075  0.4373077047690363  0.0370863056509386
  0.5549069418784364  0.4466980533597990  0.3048479155349089
  0.6647307509069035  0.3308651304192923  0.1268105093308669
  0.2226327341624715  0.7763684249525888  0.0371800435928712
  0.2187297321108439  0.7863021876107640  0.3076864360889208
  0.7789411370943949  0.5375576013922694  0.4792103694580737
  0.2138812433234921  0.0994667116690862  0.3051960383893531
  0.1219787448119708  0.2338579160685432  0.2156032433078591
  0.6731967060094475  0.0222490311693285  0.1246220391968544
  0.9913238974192737  0.3235555843565071  0.1254482247282724
  0.2215798000178167  0.4470423080769252  0.0405962352924698
  0.4451171114609314  0.5451057462965515  0.2143322553011487
  0.6342592779285162  0.3264276305421867  0.3961171786906210
  0.7623110735405888  0.5464604858349753  0.2168555544433784
  0.5551732336761506  0.7790460846496751  0.3068562087899804
  0.8192563356847801  0.2766293602332077  0.4701372860283711
  0.7720054168321313  0.0870416414115755  0.5114176478612366
 
  0.00000000E+00  0.00000000E+00  0.00000000E+00
  0.00000000E+00  0.00000000E+00  0.00000000E+00
  0.00000000E+00  0.00000000E+00  0.00000000E+00
  0.00000000E+00  0.00000000E+00  0.00000000E+00
  0.00000000E+00  0.00000000E+00  0.00000000E+00
  0.00000000E+00  0.00000000E+00  0.00000000E+00
  0.00000000E+00  0.00000000E+00  0.00000000E+00
  0.00000000E+00  0.00000000E+00  0.00000000E+00
  0.00000000E+00  0.00000000E+00  0.00000000E+00
  0.00000000E+00  0.00000000E+00  0.00000000E+00
  0.00000000E+00  0.00000000E+00  0.00000000E+00
  0.00000000E+00  0.00000000E+00  0.00000000E+00
  0.00000000E+00  0.00000000E+00  0.00000000E+00
  0.00000000E+00  0.00000000E+00  0.00000000E+00
  0.00000000E+00  0.00000000E+00  0.00000000E+00
  0.00000000E+00  0.00000000E+00  0.00000000E+00
  0.00000000E+00  0.00000000E+00  0.00000000E+00
  0.00000000E+00  0.00000000E+00  0.00000000E+00
  0.00000000E+00  0.00000000E+00  0.00000000E+00
  0.00000000E+00  0.00000000E+00  0.00000000E+00
  0.00000000E+00  0.00000000E+00  0.00000000E+00
  0.00000000E+00  0.00000000E+00  0.00000000E+00
  0.00000000E+00  0.00000000E+00  0.00000000E+00
  0.00000000E+00  0.00000000E+00  0.00000000E+00
  0.00000000E+00  0.00000000E+00  0.00000000E+00
  0.00000000E+00  0.00000000E+00  0.00000000E+00
  0.00000000E+00  0.00000000E+00  0.00000000E+00
  0.00000000E+00  0.00000000E+00  0.00000000E+00
  0.00000000E+00  0.00000000E+00  0.00000000E+00
  0.00000000E+00  0.00000000E+00  0.00000000E+00
  0.00000000E+00  0.00000000E+00  0.00000000E+00
  0.00000000E+00  0.00000000E+00  0.00000000E+00
  0.00000000E+00  0.00000000E+00  0.00000000E+00
  0.00000000E+00  0.00000000E+00  0.00000000E+00
  0.00000000E+00  0.00000000E+00  0.00000000E+00
  0.00000000E+00  0.00000000E+00  0.00000000E+00
  0.00000000E+00  0.00000000E+00  0.00000000E+00
  0.00000000E+00  0.00000000E+00  0.00000000E+00
  0.00000000E+00  0.00000000E+00  0.00000000E+00
  0.00000000E+00  0.00000000E+00  0.00000000E+00
  0.00000000E+00  0.00000000E+00  0.00000000E+00
  0.00000000E+00  0.00000000E+00  0.00000000E+00
  0.00000000E+00  0.00000000E+00  0.00000000E+00
  0.00000000E+00  0.00000000E+00  0.00000000E+00
  0.00000000E+00  0.00000000E+00  0.00000000E+00
  0.00000000E+00  0.00000000E+00  0.00000000E+00
  0.00000000E+00  0.00000000E+00  0.00000000E+00
  0.00000000E+00  0.00000000E+00  0.00000000E+00
  0.00000000E+00  0.00000000E+00  0.00000000E+00
