step                                    
   1.00000000000000     
     8.4506998061999994    0.0000000000000000    0.0000000000000000
    -4.2253499030999997    7.3185207118999998    0.0000000000000000
     0.0000000000000000    0.0000000000000000   24.2000007629000002
   Ir   Pd   Pt   Rh   Ru   H 
     9    10     9     9    11     1
Direct
  0.9965545654979282  0.0045606773965197  0.1256136783257789
  0.1134897190652923  0.2107128680961541  0.2146975310051576
  0.5663283862139351  0.1206308434039314  0.0393587590213186
  0.2448108382702539  0.4547215396806455  0.0395805740939932
  0.5515363745310522  0.4400604142549823  0.0389478939312721
  0.3370874377965728  0.6713758358194803  0.1243069685865997
  0.3214665835110840  0.6769156799508974  0.3947811725375885
  0.5568563242633587  0.7781321844980983  0.0385136153088634
  0.6676744622211346  0.6687181347189893  0.1275104187630170
  0.2220401018451776  0.1162634432559388  0.0338739629144957
  0.2271921010105651  0.1094264834900684  0.3046769861796664
  0.7783502225673492  0.2239630352460321  0.2153686351620984
  0.0004024325666745  0.3363332573058340  0.4032001831647012
  0.1110056500252240  0.5566397214380312  0.2154249614252245
  0.3199890639261606  0.3171436961697674  0.4014454004336134
  0.8846830250551190  0.4399456241522858  0.0336412595328059
  0.8886734644812836  0.4496513351836890  0.3100420753638475
  0.2290326566213010  0.7790818947563459  0.0338842650170449
  0.7634261570501338  0.2227992241034140  0.4850944451454358
  0.3309636617772147 -0.0007396582579308  0.4011366556946290
  0.8907575584200016  0.1056866163387788  0.3099219448493424
  0.2170213448582369  0.4418098405289193  0.3079811214555606
  0.5600520665961831  0.4396853399154026  0.3063182046847961
  0.4441563825267445  0.5495589009227996  0.2146062701029323
  0.9970916168373132  0.6637765435439668  0.1263564625852376
  0.5561873097779081  0.7828404861111565  0.3052014515612559
  0.4525878692929625  0.8973977586136997  0.2138689088319845
  0.6243652296073788  0.6460979712702232  0.3981042172288526
  0.3391651242676888  0.0083484116617129  0.1274759254324358
  0.5617597077633710  0.1148812732301908  0.3068861908768399
  0.6416922609956656  0.9929802862896140  0.4001162269373200
  0.8741869809750343  0.1021286447910176  0.0360426441688899
  0.0036069520383628  0.3269391581165363  0.1247655466490406
  0.2227758893477955  0.7800879373751793  0.3048105220147352
  0.1078234658521767  0.8918327521609143  0.2150315709940729
  0.8714758215688858  0.7773469177516895  0.0377319195248396
  0.8949492537732949  0.7815320934870064  0.3100675021021598
  0.0205477362525890 -0.0034351562083626  0.3973476666873249
  0.4549209504589840  0.2323548762564572  0.2128830316968866
  0.6723633859643191 -0.0007323290521393  0.1238983987170730
  0.3310043090454445  0.3240739409856493  0.1268517760254118
  0.6557242157631636  0.3320272877096361  0.1265306726206079
  0.6421468182490506  0.3122128255327680  0.3984804250043554
  0.7661270961424386  0.5547791216924450  0.2143652954130047
  0.0270454037891404  0.6850688228809511  0.3973553973781578
  0.7920602467832932  0.8881968290583959  0.2153010452492267
  0.8210829287388165  0.5785433177066968  0.4638750177220909
  0.8253382887879757  0.9013208038781010  0.4651013232426269
  0.8596903412289522  0.7614521297874128  0.5136638816357842
 
  0.00000000E+00  0.00000000E+00  0.00000000E+00
  0.00000000E+00  0.00000000E+00  0.00000000E+00
  0.00000000E+00  0.00000000E+00  0.00000000E+00
  0.00000000E+00  0.00000000E+00  0.00000000E+00
  0.00000000E+00  0.00000000E+00  0.00000000E+00
  0.00000000E+00  0.00000000E+00  0.00000000E+00
  0.00000000E+00  0.00000000E+00  0.00000000E+00
  0.00000000E+00  0.00000000E+00  0.00000000E+00
  0.00000000E+00  0.00000000E+00  0.00000000E+00
  0.00000000E+00  0.00000000E+00  0.00000000E+00
  0.00000000E+00  0.00000000E+00  0.00000000E+00
  0.00000000E+00  0.00000000E+00  0.00000000E+00
  0.00000000E+00  0.00000000E+00  0.00000000E+00
  0.00000000E+00  0.00000000E+00  0.00000000E+00
  0.00000000E+00  0.00000000E+00  0.00000000E+00
  0.00000000E+00  0.00000000E+00  0.00000000E+00
  0.00000000E+00  0.00000000E+00  0.00000000E+00
  0.00000000E+00  0.00000000E+00  0.00000000E+00
  0.00000000E+00  0.00000000E+00  0.00000000E+00
  0.00000000E+00  0.00000000E+00  0.00000000E+00
  0.00000000E+00  0.00000000E+00  0.00000000E+00
  0.00000000E+00  0.00000000E+00  0.00000000E+00
  0.00000000E+00  0.00000000E+00  0.00000000E+00
  0.00000000E+00  0.00000000E+00  0.00000000E+00
  0.00000000E+00  0.00000000E+00  0.00000000E+00
  0.00000000E+00  0.00000000E+00  0.00000000E+00
  0.00000000E+00  0.00000000E+00  0.00000000E+00
  0.00000000E+00  0.00000000E+00  0.00000000E+00
  0.00000000E+00  0.00000000E+00  0.00000000E+00
  0.00000000E+00  0.00000000E+00  0.00000000E+00
  0.00000000E+00  0.00000000E+00  0.00000000E+00
  0.00000000E+00  0.00000000E+00  0.00000000E+00
  0.00000000E+00  0.00000000E+00  0.00000000E+00
  0.00000000E+00  0.00000000E+00  0.00000000E+00
  0.00000000E+00  0.00000000E+00  0.00000000E+00
  0.00000000E+00  0.00000000E+00  0.00000000E+00
  0.00000000E+00  0.00000000E+00  0.00000000E+00
  0.00000000E+00  0.00000000E+00  0.00000000E+00
  0.00000000E+00  0.00000000E+00  0.00000000E+00
  0.00000000E+00  0.00000000E+00  0.00000000E+00
  0.00000000E+00  0.00000000E+00  0.00000000E+00
  0.00000000E+00  0.00000000E+00  0.00000000E+00
  0.00000000E+00  0.00000000E+00  0.00000000E+00
  0.00000000E+00  0.00000000E+00  0.00000000E+00
  0.00000000E+00  0.00000000E+00  0.00000000E+00
  0.00000000E+00  0.00000000E+00  0.00000000E+00
  0.00000000E+00  0.00000000E+00  0.00000000E+00
  0.00000000E+00  0.00000000E+00  0.00000000E+00
  0.00000000E+00  0.00000000E+00  0.00000000E+00
