step                                    
   1.00000000000000     
     8.4506998061999994    0.0000000000000000    0.0000000000000000
    -4.2253499030999997    7.3185207118999998    0.0000000000000000
     0.0000000000000000    0.0000000000000000   24.2000007629000002
   Ir   Pd   Pt   Rh   Ru
    10     9    10    10     9
Direct
  0.9950185654572006  0.0038531212846295  0.1266200453989877
  0.1133656309675871  0.2109344003384231  0.2155991784765174
  0.5648538489136494  0.1204167138130871  0.0400932323308434
  0.2434506509306874  0.4532722078813048  0.0407273589916862
  0.5504334632940886  0.4398295610690379  0.0398842625168005
  0.3362839859208926  0.6715286691629522  0.1252090391823960
  0.3224998722199967  0.6759744189543333  0.3950050940008485
  0.5557938937116940  0.7774353785692300  0.0393066861756827
  0.6677200181525109  0.6696674224484153  0.1279344393393755
  0.8157545055011493  0.9183135526669268  0.4710741836504373
  0.2216779132277607  0.1159444260490197  0.0349273916321032
  0.2238168138014119  0.1089958198143782  0.3055968411266046
  0.7768698542812882  0.2222472690729329  0.2167146358196079
  0.0116576758607902  0.3484029652596401  0.4030285886737360
  0.1099030385090246  0.5568515816046061  0.2162728217650608
  0.3223435961426422  0.3198053470949728  0.4016505131361984
  0.8836890523198078  0.4398812019382822  0.0344768735968266
  0.8860553603934102  0.4474438647381677  0.3103190298072924
  0.2280077282177194  0.7787670845784057  0.0347634252814674
  0.3269605820643557  0.0002194959794042  0.4007443123527494
  0.8897098452481936  0.1057160361876390  0.3114053757648365
  0.2173118814208416  0.4427045138261063  0.3078230032236889
  0.5594051564240581  0.4396093148336138  0.3071405623741785
  0.4442273506661916  0.5492100450713383  0.2149096161649839
  0.9966303616342724  0.6634864731202765  0.1271170908838434
  0.5568192359060414  0.7828413854518255  0.3067971984719344
  0.4521782450104670  0.8961638770722286  0.2156658817304936
  0.6333927928819115  0.6486537081012725  0.3991657433717821
  0.8053052579324772  0.5713989423763174  0.4763645843163196
  0.3394179075219153  0.0067765922261759  0.1289725207835752
  0.5591626524707948  0.1150260402996213  0.3091300748923478
  0.6355585275148581  0.9918600452265799  0.4005775184794801
  0.8737750682987012  0.1023243833830658  0.0369593518905578
  0.0023602868205848  0.3265119048360359  0.1258397348010588
  0.2170263582981200  0.7776511789846531  0.3066345742994492
  0.1060316569810997  0.8908170116867585  0.2157560282770673
  0.8704856766731471  0.7765550713285221  0.0384523058820753
  0.8944213971020876  0.7802503555193820  0.3089244144131398
  0.7787711444602059  0.2115796068961108  0.4798751061558758
  0.0130683044211784  0.9840721805203660  0.3981607579587562
  0.4540796909665454  0.2327035807467445  0.2140477518661530
  0.6709905540164341  0.0001459568309053  0.1243041856110340
  0.3297571906710292  0.3220900610075826  0.1277697711249029
  0.6545094519502552  0.3295620637129376  0.1275077216470905
  0.6439444785686926  0.3122244393129658  0.4013214766659506
  0.7652875147342453  0.5542515437916127  0.2148539931386809
  0.0226961751344035  0.6859843093627269  0.3975864850922733
  0.7897995583835652  0.8861444909684792  0.2163992234632449
 
  0.00000000E+00  0.00000000E+00  0.00000000E+00
  0.00000000E+00  0.00000000E+00  0.00000000E+00
  0.00000000E+00  0.00000000E+00  0.00000000E+00
  0.00000000E+00  0.00000000E+00  0.00000000E+00
  0.00000000E+00  0.00000000E+00  0.00000000E+00
  0.00000000E+00  0.00000000E+00  0.00000000E+00
  0.00000000E+00  0.00000000E+00  0.00000000E+00
  0.00000000E+00  0.00000000E+00  0.00000000E+00
  0.00000000E+00  0.00000000E+00  0.00000000E+00
  0.00000000E+00  0.00000000E+00  0.00000000E+00
  0.00000000E+00  0.00000000E+00  0.00000000E+00
  0.00000000E+00  0.00000000E+00  0.00000000E+00
  0.00000000E+00  0.00000000E+00  0.00000000E+00
  0.00000000E+00  0.00000000E+00  0.00000000E+00
  0.00000000E+00  0.00000000E+00  0.00000000E+00
  0.00000000E+00  0.00000000E+00  0.00000000E+00
  0.00000000E+00  0.00000000E+00  0.00000000E+00
  0.00000000E+00  0.00000000E+00  0.00000000E+00
  0.00000000E+00  0.00000000E+00  0.00000000E+00
  0.00000000E+00  0.00000000E+00  0.00000000E+00
  0.00000000E+00  0.00000000E+00  0.00000000E+00
  0.00000000E+00  0.00000000E+00  0.00000000E+00
  0.00000000E+00  0.00000000E+00  0.00000000E+00
  0.00000000E+00  0.00000000E+00  0.00000000E+00
  0.00000000E+00  0.00000000E+00  0.00000000E+00
  0.00000000E+00  0.00000000E+00  0.00000000E+00
  0.00000000E+00  0.00000000E+00  0.00000000E+00
  0.00000000E+00  0.00000000E+00  0.00000000E+00
  0.00000000E+00  0.00000000E+00  0.00000000E+00
  0.00000000E+00  0.00000000E+00  0.00000000E+00
  0.00000000E+00  0.00000000E+00  0.00000000E+00
  0.00000000E+00  0.00000000E+00  0.00000000E+00
  0.00000000E+00  0.00000000E+00  0.00000000E+00
  0.00000000E+00  0.00000000E+00  0.00000000E+00
  0.00000000E+00  0.00000000E+00  0.00000000E+00
  0.00000000E+00  0.00000000E+00  0.00000000E+00
  0.00000000E+00  0.00000000E+00  0.00000000E+00
  0.00000000E+00  0.00000000E+00  0.00000000E+00
  0.00000000E+00  0.00000000E+00  0.00000000E+00
  0.00000000E+00  0.00000000E+00  0.00000000E+00
  0.00000000E+00  0.00000000E+00  0.00000000E+00
  0.00000000E+00  0.00000000E+00  0.00000000E+00
  0.00000000E+00  0.00000000E+00  0.00000000E+00
  0.00000000E+00  0.00000000E+00  0.00000000E+00
  0.00000000E+00  0.00000000E+00  0.00000000E+00
  0.00000000E+00  0.00000000E+00  0.00000000E+00
  0.00000000E+00  0.00000000E+00  0.00000000E+00
  0.00000000E+00  0.00000000E+00  0.00000000E+00
