step                                    
   1.00000000000000     
     8.4506998061999994    0.0000000000000000    0.0000000000000000
    -4.2253499030999997    7.3185207118999998    0.0000000000000000
     0.0000000000000000    0.0000000000000000   24.2000007629000002
   Ir   Pd   Pt   Rh   Ru   H 
    10     9     9    11     9     1
Direct
  0.9971723840662463  0.0049936683920558  0.1254620948941521
  0.1142150374438383  0.2116665851731692  0.2146183456153366
  0.5664100074504211  0.1210577534549111  0.0391331956352188
  0.2448581507274183  0.4542761317822108  0.0397410435302833
  0.5516284578826733  0.4403566920459842  0.0386984250023630
  0.3371446789642957  0.6718357890798335  0.1242194360500532
  0.3253693340987099  0.6794161538724827  0.3942788745823339
  0.5568030205447837  0.7784871484832637  0.0384154364212911
  0.6683779473713662  0.6688419995803545  0.1270206280252267
  0.8096302137975806  0.5649719744923055  0.4659158371905606
  0.2225002094789069  0.1166759026965475  0.0336825859474057
  0.2246306142270554  0.1087411072297777  0.3052118443287647
  0.7772642840666334  0.2242514572789620  0.2157757921899574
  0.0109753612852718  0.3364465176525575  0.4018430077949145
  0.1104474187766073  0.5566915541700577  0.2153739596004228
  0.3270341470181380  0.3203665282344882  0.4010651658926543
  0.8849382658032410  0.4404944157652720  0.0336736159903185
  0.8878940385788925  0.4475904196195066  0.3108806429237121
  0.2291775402470127  0.7792747300383045  0.0337795261353721
  0.3263607319207528 -0.0015324003496444  0.4001583609665009
  0.8918853250770542  0.1064431452975602  0.3083228686053892
  0.2197473911974604  0.4429844870861601  0.3073895760389715
  0.5616968953507087  0.4413694376190817  0.3068981034958755
  0.4451347444153869  0.5503885528345464  0.2140470548245395
  0.9975456693053225  0.6642374334829314  0.1262900591586532
  0.5575318003674483  0.7841083424445071  0.3048579894200042
  0.4524987696847356  0.8978218931069299  0.2139230200775411
  0.6329754772437859  0.6588233260429220  0.3981652303468823
  0.3397578957704837  0.0083266812944172  0.1276503984139875
  0.5598005040459775  0.1128241870123689  0.3084151312318767
  0.6499189627934688  0.9959902128115262  0.4002376847546339
  0.8746606075003790  0.1024821161771751  0.0359838290762281
  0.0033385698328429  0.3270270501879866  0.1248992992339090
  0.2209482566251665  0.7775974038622203  0.3049890659300463
  0.1077963392874858  0.8922945801223142  0.2148052696757478
  0.8714944926561791  0.7774073638075120  0.0375943102953581
  0.8959935561111756  0.7799927813963442  0.3078300216757111
  0.8218700116951843  0.8933879464455513  0.4761055408141078
  0.7856166099518319  0.2502142832224066  0.4814616826412454
  0.0039859934732534  0.9838718010667175  0.3969435575399712
  0.4550077887250144  0.2338197408656922  0.2131968108324080
  0.6725133596689814  0.0007846861283846  0.1236303052389972
  0.3313524365897483  0.3237718702129873  0.1267559480317079
  0.6551693846078799  0.3307970596606659  0.1263744073739929
  0.6374015779233178  0.2991485309703935  0.3996243537916658
  0.7666541702526216  0.5559331917076860  0.2144696611721613
  0.0272266199555016  0.6883740119002811  0.3966983714309155
  0.7911270629111263  0.8878360288463828  0.2147956936677640
  0.8221276092306202  0.0766673876939393  0.5107369394928624
 
  0.00000000E+00  0.00000000E+00  0.00000000E+00
  0.00000000E+00  0.00000000E+00  0.00000000E+00
  0.00000000E+00  0.00000000E+00  0.00000000E+00
  0.00000000E+00  0.00000000E+00  0.00000000E+00
  0.00000000E+00  0.00000000E+00  0.00000000E+00
  0.00000000E+00  0.00000000E+00  0.00000000E+00
  0.00000000E+00  0.00000000E+00  0.00000000E+00
  0.00000000E+00  0.00000000E+00  0.00000000E+00
  0.00000000E+00  0.00000000E+00  0.00000000E+00
  0.00000000E+00  0.00000000E+00  0.00000000E+00
  0.00000000E+00  0.00000000E+00  0.00000000E+00
  0.00000000E+00  0.00000000E+00  0.00000000E+00
  0.00000000E+00  0.00000000E+00  0.00000000E+00
  0.00000000E+00  0.00000000E+00  0.00000000E+00
  0.00000000E+00  0.00000000E+00  0.00000000E+00
  0.00000000E+00  0.00000000E+00  0.00000000E+00
  0.00000000E+00  0.00000000E+00  0.00000000E+00
  0.00000000E+00  0.00000000E+00  0.00000000E+00
  0.00000000E+00  0.00000000E+00  0.00000000E+00
  0.00000000E+00  0.00000000E+00  0.00000000E+00
  0.00000000E+00  0.00000000E+00  0.00000000E+00
  0.00000000E+00  0.00000000E+00  0.00000000E+00
  0.00000000E+00  0.00000000E+00  0.00000000E+00
  0.00000000E+00  0.00000000E+00  0.00000000E+00
  0.00000000E+00  0.00000000E+00  0.00000000E+00
  0.00000000E+00  0.00000000E+00  0.00000000E+00
  0.00000000E+00  0.00000000E+00  0.00000000E+00
  0.00000000E+00  0.00000000E+00  0.00000000E+00
  0.00000000E+00  0.00000000E+00  0.00000000E+00
  0.00000000E+00  0.00000000E+00  0.00000000E+00
  0.00000000E+00  0.00000000E+00  0.00000000E+00
  0.00000000E+00  0.00000000E+00  0.00000000E+00
  0.00000000E+00  0.00000000E+00  0.00000000E+00
  0.00000000E+00  0.00000000E+00  0.00000000E+00
  0.00000000E+00  0.00000000E+00  0.00000000E+00
  0.00000000E+00  0.00000000E+00  0.00000000E+00
  0.00000000E+00  0.00000000E+00  0.00000000E+00
  0.00000000E+00  0.00000000E+00  0.00000000E+00
  0.00000000E+00  0.00000000E+00  0.00000000E+00
  0.00000000E+00  0.00000000E+00  0.00000000E+00
  0.00000000E+00  0.00000000E+00  0.00000000E+00
  0.00000000E+00  0.00000000E+00  0.00000000E+00
  0.00000000E+00  0.00000000E+00  0.00000000E+00
  0.00000000E+00  0.00000000E+00  0.00000000E+00
  0.00000000E+00  0.00000000E+00  0.00000000E+00
  0.00000000E+00  0.00000000E+00  0.00000000E+00
  0.00000000E+00  0.00000000E+00  0.00000000E+00
  0.00000000E+00  0.00000000E+00  0.00000000E+00
  0.00000000E+00  0.00000000E+00  0.00000000E+00
