5L_3x3_(1\1\1)                          
   1.00000000000000     
     8.4506998061999994    0.0000000000000000    0.0000000000000000
    -4.2253499030999997    7.3185207118999998    0.0000000000000000
     0.0000000000000000    0.0000000000000000   24.2000007629000002
   Ir   Pd   Pt   Rh   Ru
     9     9     9     9     9
Direct
 -0.0194044925271147  0.0037372672242417 -0.0026841900954388
  0.4723597841218160  0.0071191925722638 -0.0005694034375989
  0.0654837348512419  0.1922463791555922  0.3099576907335099
  0.6048910119634683  0.7595117907704623  0.2807014054149555
  0.4213097920577650  0.3947988874457867  0.3178040947932089
  0.8358493548098589  0.6783708764743962  0.0337103520793541
  0.2452850858479241  0.0453272282169329  0.3514337328594309
  0.4643527285017372  0.4733997601866549  0.2052884505442205
  0.8930638660296939  0.8420497076444803  0.3444535832973527
  0.6386047309205821  0.8312203972136945  0.1656649708768651
  0.9439093388671299  0.9661620818784310  0.1081051905618649
  0.5014866588298054  0.5452972856988619  0.0804535615259370
  0.1405327828215309  0.8394744877186169  0.1645713582356217
  0.7870352022150020  0.1266216039686405  0.2432074746391672
  0.3373685525514199  0.2311090518571082  0.0005886318733252
  0.6364643128218145  0.3238023946463044  0.0626244513810648
  0.1339607251448067  0.3232473170667080  0.0631250725603930
  0.2854728379787386  0.6087404293471954  0.1476703547378546
  0.9261956828329699  0.9015647270300203  0.2281745040376514
  0.1087806969638557  0.2596067459011470  0.1857917047755696
  0.9605260909389921  0.4858031252234319  0.2072976478080221
  0.0702091430562969  0.6947142141545957  0.3876728796213066
  0.5996105081207882  0.2629600581210809  0.1872554850057016
  0.2446525641362559  0.5482548965765583  0.2674915981900362
  0.2175581989100049  0.4793691440078117  0.3822569030767111
  0.4226232324201374  0.9070249245352752  0.2288243371658435
  0.4664533816652829  0.9670875181787466  0.1085278103714744
  0.1724684014358134  0.8983050949136010  0.0523190446310243
 -0.0134158791731494  0.5399373959783645  0.0975751519129568
  0.6194928329784987  0.7912427511751083 -0.0003963318905424
  0.2862965011308234  0.6750976350631707  0.0315611721741068
  0.7088245545895573  0.4810570413361516  0.3771206332288344
  0.3964226429458412  0.8443892343223153  0.3445980199258397
  0.9452153659478002  0.4463473350344470 -0.0006724662775354
  0.8234609161915170  0.2023384590553934  0.1293480776378280
  0.5732196625674479  0.1967017901424752  0.3086309750808406
  0.7470089588755729  0.5480256352963011  0.2697078896144491
  0.7833062643505693  0.1165136071490704  0.0303551227711669
  0.5786661641158783  0.7072414053966388  0.3847122797080882
  0.2844477152708980  0.1264238992968285  0.2411343666575153
  0.1019046376541407  0.7661139200115938  0.2810243803472791
  0.9190544034728978  0.3962417015870895  0.3224555577792703
  0.3202446974985412  0.1891425792754700  0.1247452091069980
  0.7714691222386447  0.6128916606295306  0.1520161595327453
  0.7417687390569040  0.0372913315214321  0.3532253224257343
 
  0.00000000E+00  0.00000000E+00  0.00000000E+00
  0.00000000E+00  0.00000000E+00  0.00000000E+00
  0.00000000E+00  0.00000000E+00  0.00000000E+00
  0.00000000E+00  0.00000000E+00  0.00000000E+00
  0.00000000E+00  0.00000000E+00  0.00000000E+00
  0.00000000E+00  0.00000000E+00  0.00000000E+00
  0.00000000E+00  0.00000000E+00  0.00000000E+00
  0.00000000E+00  0.00000000E+00  0.00000000E+00
  0.00000000E+00  0.00000000E+00  0.00000000E+00
  0.00000000E+00  0.00000000E+00  0.00000000E+00
  0.00000000E+00  0.00000000E+00  0.00000000E+00
  0.00000000E+00  0.00000000E+00  0.00000000E+00
  0.00000000E+00  0.00000000E+00  0.00000000E+00
  0.00000000E+00  0.00000000E+00  0.00000000E+00
  0.00000000E+00  0.00000000E+00  0.00000000E+00
  0.00000000E+00  0.00000000E+00  0.00000000E+00
  0.00000000E+00  0.00000000E+00  0.00000000E+00
  0.00000000E+00  0.00000000E+00  0.00000000E+00
  0.00000000E+00  0.00000000E+00  0.00000000E+00
  0.00000000E+00  0.00000000E+00  0.00000000E+00
  0.00000000E+00  0.00000000E+00  0.00000000E+00
  0.00000000E+00  0.00000000E+00  0.00000000E+00
  0.00000000E+00  0.00000000E+00  0.00000000E+00
  0.00000000E+00  0.00000000E+00  0.00000000E+00
  0.00000000E+00  0.00000000E+00  0.00000000E+00
  0.00000000E+00  0.00000000E+00  0.00000000E+00
  0.00000000E+00  0.00000000E+00  0.00000000E+00
  0.00000000E+00  0.00000000E+00  0.00000000E+00
  0.00000000E+00  0.00000000E+00  0.00000000E+00
  0.00000000E+00  0.00000000E+00  0.00000000E+00
  0.00000000E+00  0.00000000E+00  0.00000000E+00
  0.00000000E+00  0.00000000E+00  0.00000000E+00
  0.00000000E+00  0.00000000E+00  0.00000000E+00
  0.00000000E+00  0.00000000E+00  0.00000000E+00
  0.00000000E+00  0.00000000E+00  0.00000000E+00
  0.00000000E+00  0.00000000E+00  0.00000000E+00
  0.00000000E+00  0.00000000E+00  0.00000000E+00
  0.00000000E+00  0.00000000E+00  0.00000000E+00
  0.00000000E+00  0.00000000E+00  0.00000000E+00
  0.00000000E+00  0.00000000E+00  0.00000000E+00
  0.00000000E+00  0.00000000E+00  0.00000000E+00
  0.00000000E+00  0.00000000E+00  0.00000000E+00
  0.00000000E+00  0.00000000E+00  0.00000000E+00
  0.00000000E+00  0.00000000E+00  0.00000000E+00
  0.00000000E+00  0.00000000E+00  0.00000000E+00
