total                                   
   1.00000000000000     
     8.4506998061999994    0.0000000000000000    0.0000000000000000
    -4.2253499030999997    7.3185207118999998    0.0000000000000000
     0.0000000000000000    0.0000000000000000   24.2000007629000002
   Ir   Pd   Pt   Rh   Ru   H 
     9     9     9     9     9     1
Direct
  0.6185160517318219  0.7299390588687448  0.1248505811750245
  0.5994302057559635  0.4904281433044437  0.3873800541617252
  0.9051969849865237  0.7272557869286134  0.4101732833272402
  0.1461522908210071  0.7670280510365627  0.0482577404655993
  0.6417417687627435  0.7065433728070842  0.2959771035437029
  0.9402324733562395  0.3914772172415915  0.2025284725066444
  0.7656525442555809  0.0989449080721773  0.1358410283988133
  0.1557769362083449  0.7539061377937351  0.3480165919868097
  0.4185405318861019  0.8832444533503959  0.1149386465386384
  0.9658305308623941  0.1522694557522220  0.3929912458676287
  0.2880033444701676  0.3833846929268732  0.4343847482697835
  0.0988288573709394  0.1987070686224722  0.1839049261164138
  0.9953545560667144  0.9388637462756549  0.1008987372728108
  0.8667861427900084  0.8493554381670447  0.2064938005973363
  0.0843160988274669  0.2768711111082129  0.0519805649739598
  0.7645053699715961  0.6129055344786766  0.0440687691085057
  0.6518059629323433  0.8334612529548837  0.3983392758482368
  0.8297475747692185  0.0928898318294385  0.2738957033510351
  0.7485256326708665  0.9390171203856070  0.0328233790087912
  0.2734553566154965  0.1145836553885209  0.0289063176231681
  0.2052359499796113  0.2653740163274897  0.2935354138674392
  0.6989258259033336  0.2390019585049999  0.3740203265292619
  0.4678552515305270  0.9651940178154509  0.0014712306868070
  0.7139277571259240  0.4906745138512059  0.1621638172257714
  0.3339158368967962  0.1207398740171114  0.3680000102006958
  0.2316604356989035  0.9705831143944514  0.2535298535804428
  0.4390012259801028  0.4897920365437676  0.2148536794086710
  0.4226068182094648  0.3945172715362765  0.0941903670857159
  0.2390552257201004  0.5383155749637436  0.1415419243605792
  0.3363006923895390  0.1083357769222394  0.1535993321820602
  0.3848458524590966  0.6419543721806056  0.0403845260720092
  0.5949103531589253  0.1755746612626872  0.2227258435242360
  0.9344369951543993  0.4575296627255704  0.0914497950325367
  0.8955106233368020  0.6086470661326318  0.2692956027555380
  0.0159789934359036  0.4907474577532321  0.4193209851113954
  0.4894796431128757  0.9268813289530783  0.3172841708654901
  0.0925035334889419  0.7350136539375501  0.1640076862350535
  0.5478985815891761  0.8576128644460335  0.2139766443453124
  0.7958143392067142  0.2547153853904264  0.0043371803131573
  0.0067733936454932  0.4124313040863837  0.3186412251721480
  0.5592080136259817  0.3605864201765656  0.2930051203013380
  0.2299008028469869  0.6462814730624403  0.2478658530298562
  0.9726663873300286  0.9160891357108852  0.3255453522966965
  0.5977898777259136  0.2305062435962688  0.0784328307894036
  0.3406928086946788  0.5826842351481546  0.3485144761465774
  0.0496856276422249  0.3212704942678256  0.4540857587399470
 
  0.00000000E+00  0.00000000E+00  0.00000000E+00
  0.00000000E+00  0.00000000E+00  0.00000000E+00
  0.00000000E+00  0.00000000E+00  0.00000000E+00
  0.00000000E+00  0.00000000E+00  0.00000000E+00
  0.00000000E+00  0.00000000E+00  0.00000000E+00
  0.00000000E+00  0.00000000E+00  0.00000000E+00
  0.00000000E+00  0.00000000E+00  0.00000000E+00
  0.00000000E+00  0.00000000E+00  0.00000000E+00
  0.00000000E+00  0.00000000E+00  0.00000000E+00
  0.00000000E+00  0.00000000E+00  0.00000000E+00
  0.00000000E+00  0.00000000E+00  0.00000000E+00
  0.00000000E+00  0.00000000E+00  0.00000000E+00
  0.00000000E+00  0.00000000E+00  0.00000000E+00
  0.00000000E+00  0.00000000E+00  0.00000000E+00
  0.00000000E+00  0.00000000E+00  0.00000000E+00
  0.00000000E+00  0.00000000E+00  0.00000000E+00
  0.00000000E+00  0.00000000E+00  0.00000000E+00
  0.00000000E+00  0.00000000E+00  0.00000000E+00
  0.00000000E+00  0.00000000E+00  0.00000000E+00
  0.00000000E+00  0.00000000E+00  0.00000000E+00
  0.00000000E+00  0.00000000E+00  0.00000000E+00
  0.00000000E+00  0.00000000E+00  0.00000000E+00
  0.00000000E+00  0.00000000E+00  0.00000000E+00
  0.00000000E+00  0.00000000E+00  0.00000000E+00
  0.00000000E+00  0.00000000E+00  0.00000000E+00
  0.00000000E+00  0.00000000E+00  0.00000000E+00
  0.00000000E+00  0.00000000E+00  0.00000000E+00
  0.00000000E+00  0.00000000E+00  0.00000000E+00
  0.00000000E+00  0.00000000E+00  0.00000000E+00
  0.00000000E+00  0.00000000E+00  0.00000000E+00
  0.00000000E+00  0.00000000E+00  0.00000000E+00
  0.00000000E+00  0.00000000E+00  0.00000000E+00
  0.00000000E+00  0.00000000E+00  0.00000000E+00
  0.00000000E+00  0.00000000E+00  0.00000000E+00
  0.00000000E+00  0.00000000E+00  0.00000000E+00
  0.00000000E+00  0.00000000E+00  0.00000000E+00
  0.00000000E+00  0.00000000E+00  0.00000000E+00
  0.00000000E+00  0.00000000E+00  0.00000000E+00
  0.00000000E+00  0.00000000E+00  0.00000000E+00
  0.00000000E+00  0.00000000E+00  0.00000000E+00
  0.00000000E+00  0.00000000E+00  0.00000000E+00
  0.00000000E+00  0.00000000E+00  0.00000000E+00
  0.00000000E+00  0.00000000E+00  0.00000000E+00
  0.00000000E+00  0.00000000E+00  0.00000000E+00
  0.00000000E+00  0.00000000E+00  0.00000000E+00
  0.00000000E+00  0.00000000E+00  0.00000000E+00
