5L_3x3_(1\1\1)                          
   1.00000000000000     
     8.4506998061999994    0.0000000000000000    0.0000000000000000
    -4.2253499030999997    7.3185207118999998    0.0000000000000000
     0.0000000000000000    0.0000000000000000   24.2000007629000002
   Ir   Pd   Pt   Rh   Ru   H 
     9     8     9     9     9     1
Direct
  0.5571577929214906  0.1087464109042206  0.0396050117293455
  0.5417960299527244  0.1079112115729741  0.3118691691941519
  0.7788738401564019  0.2323849996504678  0.2171792288381853
  0.0058728545551388  0.3489813941443777  0.3933560021604255
  0.3254617215744888  0.3307567153484394  0.1268306596448736
  0.8778749335667099  0.4467373097948551  0.3057440456123074
  0.9981992597602494  0.6591127963968401  0.1260791390416608
  0.3292875282219181  0.6516494889275312  0.3919676378657187
  0.8897488310483395  0.7797449711752990  0.3068603301202992
  0.0018393033903625  0.0048176581168739  0.3977937754526013
  0.2267974389370414  0.1155433784710000  0.0323225488749687
  0.6513650307143218  0.9936435012431649  0.3996791249218720
  0.2257106770389120  0.4430518639467419  0.3032085706985334
  0.8907242207659377  0.4437684470641513  0.0332754288561522
  0.1080317313314934  0.8854118604303777  0.2168471730840915
  0.4513231878292059  0.8926421790127756  0.2178743377727556
  0.7742211605855073  0.8878933489744547  0.2168260640915755
  0.0028310815023283  0.0044885049760852  0.1263708124877612
  0.8848057259841942  0.1069453752917383  0.3066285552902044
  0.1055418341735141  0.5503250389624348  0.2164070931104696
 -0.0003677086161459  0.6607622504501212  0.3962574813467672
  0.3347626023370083  0.6685350844836173  0.1281719255525228
  0.5572632926120966  0.7834324738602049  0.0356448344923229
  0.6662489664695453  0.6642850497636935  0.1281519322484975
  0.6555422977428004  0.6573306761927085  0.3971775555222113
  0.8885915942508376  0.7729610557336344  0.0361860589221872
  0.3376296359730765  0.0044551336174419  0.1266336687897444
  0.4446638246125789  0.2305598900727318  0.2177884007440687
  0.8849223360920059  0.1205103459259700  0.0384171300535779
  0.3267147608330268  0.3354626773671006  0.3948883879731518
  0.5448886781644801  0.4380751416576077  0.0382120149947012
  0.5568919086935635  0.4382841225094727  0.3059645451004720
  0.6681429141082211  0.3295267604646220  0.1275912452686437
  0.2267741329050940  0.7759701658814872  0.0380888918345923
  0.2347624538333183  0.8004375737962961  0.3121121869609267
  0.2250054775559738  0.1025018035687339  0.3081930716764101
  0.1245116360644203  0.2305824783278574  0.2166644092971687
  0.6771006952993733  0.0215543004955834  0.1255756633272862
  0.9972014482577886  0.3233413357958836  0.1275031187336457
  0.2260167078401285  0.4452898111598656  0.0418009957295576
  0.4484806219494121  0.5434672166691588  0.2172419807220276
  0.6846426870412731  0.3298335315932248  0.3936389244557352
  0.7686629200769715  0.5472520457661799  0.2171537674834826
  0.5554606716984861  0.7784285274302580  0.3074228461791934
  0.5513906479970143  0.4196637204131437  0.4299281852683779
 
  0.00000000E+00  0.00000000E+00  0.00000000E+00
  0.00000000E+00  0.00000000E+00  0.00000000E+00
  0.00000000E+00  0.00000000E+00  0.00000000E+00
  0.00000000E+00  0.00000000E+00  0.00000000E+00
  0.00000000E+00  0.00000000E+00  0.00000000E+00
  0.00000000E+00  0.00000000E+00  0.00000000E+00
  0.00000000E+00  0.00000000E+00  0.00000000E+00
  0.00000000E+00  0.00000000E+00  0.00000000E+00
  0.00000000E+00  0.00000000E+00  0.00000000E+00
  0.00000000E+00  0.00000000E+00  0.00000000E+00
  0.00000000E+00  0.00000000E+00  0.00000000E+00
  0.00000000E+00  0.00000000E+00  0.00000000E+00
  0.00000000E+00  0.00000000E+00  0.00000000E+00
  0.00000000E+00  0.00000000E+00  0.00000000E+00
  0.00000000E+00  0.00000000E+00  0.00000000E+00
  0.00000000E+00  0.00000000E+00  0.00000000E+00
  0.00000000E+00  0.00000000E+00  0.00000000E+00
  0.00000000E+00  0.00000000E+00  0.00000000E+00
  0.00000000E+00  0.00000000E+00  0.00000000E+00
  0.00000000E+00  0.00000000E+00  0.00000000E+00
  0.00000000E+00  0.00000000E+00  0.00000000E+00
  0.00000000E+00  0.00000000E+00  0.00000000E+00
  0.00000000E+00  0.00000000E+00  0.00000000E+00
  0.00000000E+00  0.00000000E+00  0.00000000E+00
  0.00000000E+00  0.00000000E+00  0.00000000E+00
  0.00000000E+00  0.00000000E+00  0.00000000E+00
  0.00000000E+00  0.00000000E+00  0.00000000E+00
  0.00000000E+00  0.00000000E+00  0.00000000E+00
  0.00000000E+00  0.00000000E+00  0.00000000E+00
  0.00000000E+00  0.00000000E+00  0.00000000E+00
  0.00000000E+00  0.00000000E+00  0.00000000E+00
  0.00000000E+00  0.00000000E+00  0.00000000E+00
  0.00000000E+00  0.00000000E+00  0.00000000E+00
  0.00000000E+00  0.00000000E+00  0.00000000E+00
  0.00000000E+00  0.00000000E+00  0.00000000E+00
  0.00000000E+00  0.00000000E+00  0.00000000E+00
  0.00000000E+00  0.00000000E+00  0.00000000E+00
  0.00000000E+00  0.00000000E+00  0.00000000E+00
  0.00000000E+00  0.00000000E+00  0.00000000E+00
  0.00000000E+00  0.00000000E+00  0.00000000E+00
  0.00000000E+00  0.00000000E+00  0.00000000E+00
  0.00000000E+00  0.00000000E+00  0.00000000E+00
  0.00000000E+00  0.00000000E+00  0.00000000E+00
  0.00000000E+00  0.00000000E+00  0.00000000E+00
  0.00000000E+00  0.00000000E+00  0.00000000E+00
