hRu2Ru3Pt2                              
   1.00000000000000     
     8.4506998061999994    0.0000000000000000    0.0000000000000000
    -4.2253499030999997    7.3185207118999998    0.0000000000000000
     0.0000000000000000    0.0000000000000000   24.2000007629000002
   Ir   Pd   Pt   Rh   Ru   H 
     9     9     9     9     9     1
Direct
  0.9966025105603359  0.0048677266049960  0.1260526830216766
  0.1117226511743701  0.2107603290877430  0.2152832891843620
  0.5651873975799181  0.1204681151281976  0.0396468669911586
  0.2430289569090993  0.4529547206953548  0.0402463638486487
  0.5506005426387228  0.4401762716869329  0.0391916099245508
  0.3377933343608300  0.6715986065470290  0.1249488753544904
  0.3290441927461698  0.6758864763854924  0.3949510490287214
  0.5561156377478017  0.7777557587991084  0.0384867344901077
  0.6661772798240305  0.6690977828376866  0.1275876177631393
  0.2224300369890232  0.1156567027693278  0.0343981153850623
  0.2250487164796450  0.1105572960823619  0.3060305403996527
  0.7756546002785113  0.2223556497968489  0.2154988518973900
  0.9972388732732504  0.3349266592240438  0.4031448083293253
  0.1121933917043692  0.5588753801438926  0.2158068837311383
  0.3359215173478838  0.3327412105216623  0.4006351948743306
  0.8840928188310879  0.4404443463792593  0.0341077274184405
  0.8916834537599067  0.4477940868990551  0.3076622516859835
  0.2286341482755665  0.7790042887131917  0.0342274632771193
  0.3333499927288235  0.0010960768246458  0.4001087194130971
  0.8917108121936242  0.1090592974141914  0.3087761004565256
  0.2202312124723318  0.4431748041051418  0.3077586120645390
  0.5619806562224030  0.4430421671549564  0.3062581363747169
  0.4463786054469321  0.5503683204412376  0.2152019290210353
  0.9972039449734096  0.6641350931427987  0.1264620535376107
  0.5586259194262923  0.7804769243536068  0.3053865365056892
  0.4492038647668054  0.8973029833626984  0.2157489725029590
  0.6666789705620977  0.6629438674152049  0.4000966864336148
  0.3401799651167223  0.0077162022618653  0.1287694567110665
  0.5572890462637465  0.1136921296246311  0.3100132684742760
  0.6616323862986108  0.9979742704364201  0.3970323137489998
  0.8754758821841295  0.1023184538955000  0.0366827165557820
  0.0033432180884369  0.3276276207032053  0.1253098201064381
  0.2231744770379750  0.7815995044118236  0.3080503725416887
  0.1050790579310300  0.8905834276154574  0.2151725907328509
  0.8704491072660657  0.7768062583865928  0.0380277608321744
  0.8968079995042917  0.7806252421452644  0.3070380955419660
  0.9974943844252313  0.9799562446001113  0.3952640320168319
  0.4539702458265452  0.2326527926104155  0.2142995516115143
  0.6697185595322143  0.9993167000103390  0.1237413286792655
  0.3319728720068419  0.3251743142427471  0.1273894519679621
  0.6532181485361606  0.3293496753015270  0.1267172733266090
  0.6661881856646543  0.3276242227642023  0.3939337930734800
  0.7674885967769107  0.5557920496222374  0.2141118128377687
  0.0094496449239343  0.6748504682485851  0.3942573415950685
  0.7912628620125634  0.8891302145285368  0.2154572228113696
  0.8782610533306785  0.7686788770738660  0.4388471329198019
 
  0.00000000E+00  0.00000000E+00  0.00000000E+00
  0.00000000E+00  0.00000000E+00  0.00000000E+00
  0.00000000E+00  0.00000000E+00  0.00000000E+00
  0.00000000E+00  0.00000000E+00  0.00000000E+00
  0.00000000E+00  0.00000000E+00  0.00000000E+00
  0.00000000E+00  0.00000000E+00  0.00000000E+00
  0.00000000E+00  0.00000000E+00  0.00000000E+00
  0.00000000E+00  0.00000000E+00  0.00000000E+00
  0.00000000E+00  0.00000000E+00  0.00000000E+00
  0.00000000E+00  0.00000000E+00  0.00000000E+00
  0.00000000E+00  0.00000000E+00  0.00000000E+00
  0.00000000E+00  0.00000000E+00  0.00000000E+00
  0.00000000E+00  0.00000000E+00  0.00000000E+00
  0.00000000E+00  0.00000000E+00  0.00000000E+00
  0.00000000E+00  0.00000000E+00  0.00000000E+00
  0.00000000E+00  0.00000000E+00  0.00000000E+00
  0.00000000E+00  0.00000000E+00  0.00000000E+00
  0.00000000E+00  0.00000000E+00  0.00000000E+00
  0.00000000E+00  0.00000000E+00  0.00000000E+00
  0.00000000E+00  0.00000000E+00  0.00000000E+00
  0.00000000E+00  0.00000000E+00  0.00000000E+00
  0.00000000E+00  0.00000000E+00  0.00000000E+00
  0.00000000E+00  0.00000000E+00  0.00000000E+00
  0.00000000E+00  0.00000000E+00  0.00000000E+00
  0.00000000E+00  0.00000000E+00  0.00000000E+00
  0.00000000E+00  0.00000000E+00  0.00000000E+00
  0.00000000E+00  0.00000000E+00  0.00000000E+00
  0.00000000E+00  0.00000000E+00  0.00000000E+00
  0.00000000E+00  0.00000000E+00  0.00000000E+00
  0.00000000E+00  0.00000000E+00  0.00000000E+00
  0.00000000E+00  0.00000000E+00  0.00000000E+00
  0.00000000E+00  0.00000000E+00  0.00000000E+00
  0.00000000E+00  0.00000000E+00  0.00000000E+00
  0.00000000E+00  0.00000000E+00  0.00000000E+00
  0.00000000E+00  0.00000000E+00  0.00000000E+00
  0.00000000E+00  0.00000000E+00  0.00000000E+00
  0.00000000E+00  0.00000000E+00  0.00000000E+00
  0.00000000E+00  0.00000000E+00  0.00000000E+00
  0.00000000E+00  0.00000000E+00  0.00000000E+00
  0.00000000E+00  0.00000000E+00  0.00000000E+00
  0.00000000E+00  0.00000000E+00  0.00000000E+00
  0.00000000E+00  0.00000000E+00  0.00000000E+00
  0.00000000E+00  0.00000000E+00  0.00000000E+00
  0.00000000E+00  0.00000000E+00  0.00000000E+00
  0.00000000E+00  0.00000000E+00  0.00000000E+00
  0.00000000E+00  0.00000000E+00  0.00000000E+00
