5L_3x3_(1\1\1)                          
   1.00000000000000     
     8.4506998061999994    0.0000000000000000    0.0000000000000000
    -4.2253499030999997    7.3185207118999998    0.0000000000000000
     0.0000000000000000    0.0000000000000000   24.2000007629000002
   Ir   Pd   Pt   Rh   Ru   H 
     8     9     9     9     9     1
Direct
  0.5563433495033728  0.1072735736012890  0.0395683467667033
  0.5520192048432887  0.1143614063895347  0.3088403441479091
  0.7769489649856848  0.2307211801595916  0.2173813668997719
  0.3240109123442844  0.3311246593150191  0.1272124664294742
  0.8731959783025163  0.4406260162742572  0.3068413189231814
  0.9987659484343947  0.6575518619083045  0.1257154655215570
  0.3488670866528263  0.6720337739487953  0.3917572260143942
  0.8921905743936540  0.7774308556630988  0.3061353436586265
  0.0083168775247208  0.9986561699363029  0.3967228757655685
  0.2266302549427398  0.1150244615678388  0.0322681224158035
  0.3369295063038089  0.0002503381320815  0.4013796068337311
  0.6660763472090890  0.0043405845041938  0.4004801510594088
  0.2130197961159966  0.4384544274326986  0.3080117646886662
  0.8894911298278556  0.4427364447011673  0.0331383460265277
  0.1096042279651961  0.8861979650112345  0.2161761972682076
  0.4524356746735712  0.8932937272029520  0.2176429300374967
  0.7748690649158085  0.8859950756804705  0.2167289805212818
  0.0037367897089119  0.0064673912825765  0.1265849021760012
  0.8865804770053075  0.1086329988493471  0.3066850281366979
  0.1028609887606926  0.5479314807562761  0.2174089295097234
  0.0034561965248686  0.6468652712224168  0.3958738361164661
  0.3329020712710299  0.6680885596917211  0.1286227727632371
  0.5569813757297967  0.7819371671694554  0.0361702854988973
  0.6650640504614815  0.6621895502420851  0.1286630807204706
  0.6657883509946110  0.6648553741206310  0.3962346824147134
  0.8875158539737439  0.7725520607029512  0.0370575855649214
  0.3385559982387215  0.0058210230743474  0.1266386768033284
  0.4449322262123222  0.2336474272093375  0.2175489063456877
  0.8833344350794015  0.1185426648270098  0.0380618785558387
  0.3539237581254025  0.3391346035643975  0.3942656802943381
  0.5446064975221525  0.4379181161681103  0.0387551591876045
  0.5534232365902491  0.4477432653263048  0.3042742199538140
  0.6692230537186092  0.3292081182334233  0.1275586508542531
  0.2277058788995633  0.7758478708644589  0.0381644700368810
  0.2284949602684427  0.7883341512576164  0.3087711829258859
  0.2251143212031477  0.1079168675771763  0.3065192266839465
  0.1246552298912233  0.2322203945565202  0.2177002049309172
  0.6782834901662332  0.0217507067206136  0.1257228383371739
  0.9972905065611947  0.3240125219830150  0.1267807746583029
  0.2269722287582387  0.4464749059273064  0.0417971357547464
  0.4454866722547636  0.5453769136314370  0.2173215395729380
  0.6629563626475212  0.3396942375698043  0.3941111781260295
  0.7682845683724178  0.5465447625038774  0.2175902612121226
  0.5583728006722825  0.7776346248752180  0.3067015663815797
  0.7442139400513634  0.2226751056957182  0.4331097050939990
 
  0.00000000E+00  0.00000000E+00  0.00000000E+00
  0.00000000E+00  0.00000000E+00  0.00000000E+00
  0.00000000E+00  0.00000000E+00  0.00000000E+00
  0.00000000E+00  0.00000000E+00  0.00000000E+00
  0.00000000E+00  0.00000000E+00  0.00000000E+00
  0.00000000E+00  0.00000000E+00  0.00000000E+00
  0.00000000E+00  0.00000000E+00  0.00000000E+00
  0.00000000E+00  0.00000000E+00  0.00000000E+00
  0.00000000E+00  0.00000000E+00  0.00000000E+00
  0.00000000E+00  0.00000000E+00  0.00000000E+00
  0.00000000E+00  0.00000000E+00  0.00000000E+00
  0.00000000E+00  0.00000000E+00  0.00000000E+00
  0.00000000E+00  0.00000000E+00  0.00000000E+00
  0.00000000E+00  0.00000000E+00  0.00000000E+00
  0.00000000E+00  0.00000000E+00  0.00000000E+00
  0.00000000E+00  0.00000000E+00  0.00000000E+00
  0.00000000E+00  0.00000000E+00  0.00000000E+00
  0.00000000E+00  0.00000000E+00  0.00000000E+00
  0.00000000E+00  0.00000000E+00  0.00000000E+00
  0.00000000E+00  0.00000000E+00  0.00000000E+00
  0.00000000E+00  0.00000000E+00  0.00000000E+00
  0.00000000E+00  0.00000000E+00  0.00000000E+00
  0.00000000E+00  0.00000000E+00  0.00000000E+00
  0.00000000E+00  0.00000000E+00  0.00000000E+00
  0.00000000E+00  0.00000000E+00  0.00000000E+00
  0.00000000E+00  0.00000000E+00  0.00000000E+00
  0.00000000E+00  0.00000000E+00  0.00000000E+00
  0.00000000E+00  0.00000000E+00  0.00000000E+00
  0.00000000E+00  0.00000000E+00  0.00000000E+00
  0.00000000E+00  0.00000000E+00  0.00000000E+00
  0.00000000E+00  0.00000000E+00  0.00000000E+00
  0.00000000E+00  0.00000000E+00  0.00000000E+00
  0.00000000E+00  0.00000000E+00  0.00000000E+00
  0.00000000E+00  0.00000000E+00  0.00000000E+00
  0.00000000E+00  0.00000000E+00  0.00000000E+00
  0.00000000E+00  0.00000000E+00  0.00000000E+00
  0.00000000E+00  0.00000000E+00  0.00000000E+00
  0.00000000E+00  0.00000000E+00  0.00000000E+00
  0.00000000E+00  0.00000000E+00  0.00000000E+00
  0.00000000E+00  0.00000000E+00  0.00000000E+00
  0.00000000E+00  0.00000000E+00  0.00000000E+00
  0.00000000E+00  0.00000000E+00  0.00000000E+00
  0.00000000E+00  0.00000000E+00  0.00000000E+00
  0.00000000E+00  0.00000000E+00  0.00000000E+00
  0.00000000E+00  0.00000000E+00  0.00000000E+00
