Amorphous+H                             
   1.00000000000000     
     8.4506998061999994    0.0000000000000000    0.0000000000000000
    -4.2253499030999997    7.3185207118999998    0.0000000000000000
     0.0000000000000000    0.0000000000000000   24.2000007629000002
   Ir   Pd   Pt   Rh   Ru   H 
     9     9     9     9     9     1
Direct
  0.6979665599824519  0.6468082202952106  0.0328890359229723
  0.9081492953529827  0.1179555410658216  0.3312364305665231
  0.4789319484510704  0.5733447052978038  0.4079245295049129
  0.5805575041108703  0.7991076440827866  0.3271582506551777
  0.0265755544559448  0.3464512231379530  0.2369110706376201
  0.2095922205661266  0.1684397175248869  0.2703365582611686
  0.4096314415444604  0.6022954703444590  0.0932235441340473
  0.2803564785240165  0.7464494167164696  0.3831636880427473
  0.0559446965919216  0.6387290795289633  0.2987964658906069
  0.8932936234980160  0.4682100980102642  0.0458755931757449
  0.7200060294042637  0.3039137388182991  0.2968938889153966
  0.8715240945041633  0.8199320134546736  0.2701340453778355
  0.7530679120841881  0.9413116859261320  0.0891851308783895
  0.7915826778267305  0.2380022376461894  0.1446849346338758
  0.3490798068445666  0.6700378498792697  0.2369621424878117
  0.6878925640172288  0.0118343335873220  0.2364520779855759
  0.5651999616076127  0.1219396024554108  0.0466251554486997
  0.1670312077607231  0.8623464668020312  0.2077457859092666
  0.8329260984512931  0.5238388562967025  0.2073077153385087
  0.6457530238065533  0.7054495854913827  0.1785584044242911
  0.2275664210195872  0.4397131751079544  0.3315715234984715
  0.8905313760063206  0.1731045347637001  0.0006457715916332
  0.2282145321730413  0.7915258757385533  0.0539621297449701
  0.4582376232901538  0.9047700133073678  0.1465124863374603
  0.9895808216236864  0.0485340651530858  0.1776841000607399
  0.3855957955937568  0.3207766824965630  0.0290111903356853
  0.0485225149743580  0.9755503750651484  0.0300342984023883
  0.6074017005997839  0.4187085238348389  0.1185662063575210
  0.0977143215210562  0.2778616681414263  0.0901345759266358
  0.4262758895894290  0.2696808701837167  0.3579892282236278
  0.5311367649971133  0.4859177136390236  0.2692834802504260
  0.1188430166971019  0.5633972912541754  0.1449004886452905
  0.2831835411050760  0.0885642484327989  0.1175467625479501
  0.3881869170850550  0.9799981751476274  0.2979181472136712
  0.9393915912830288  0.4227690926162092  0.3853383774305226
  0.6118124782041969  0.0739158199227314  0.3840328140460827
  0.3087213952542704  0.3649858042970809  0.1771626316696850
  0.2165486288758446  0.5027802145435173  0.0053309799313891
  0.8112718025165884  0.8781995339073365  0.4075660032583355
  0.7521603426897902  0.5843437812142249  0.3623356543111983
 -0.0114942423331873  0.7175617399422134  0.4335290551106644
  0.9331276435213878  0.7388500066996153  0.1145092961788059
  0.5171582486781254  0.7856328608992682  0.0019903538198583
  0.4832042257946380  0.1955328718571928  0.2071797168569526
  0.1032676686719305  0.9291923143126617  0.3574970525389051
  0.8938861831826911  0.8334752571599213  0.4724331535199506
 
  0.00000000E+00  0.00000000E+00  0.00000000E+00
  0.00000000E+00  0.00000000E+00  0.00000000E+00
  0.00000000E+00  0.00000000E+00  0.00000000E+00
  0.00000000E+00  0.00000000E+00  0.00000000E+00
  0.00000000E+00  0.00000000E+00  0.00000000E+00
  0.00000000E+00  0.00000000E+00  0.00000000E+00
  0.00000000E+00  0.00000000E+00  0.00000000E+00
  0.00000000E+00  0.00000000E+00  0.00000000E+00
  0.00000000E+00  0.00000000E+00  0.00000000E+00
  0.00000000E+00  0.00000000E+00  0.00000000E+00
  0.00000000E+00  0.00000000E+00  0.00000000E+00
  0.00000000E+00  0.00000000E+00  0.00000000E+00
  0.00000000E+00  0.00000000E+00  0.00000000E+00
  0.00000000E+00  0.00000000E+00  0.00000000E+00
  0.00000000E+00  0.00000000E+00  0.00000000E+00
  0.00000000E+00  0.00000000E+00  0.00000000E+00
  0.00000000E+00  0.00000000E+00  0.00000000E+00
  0.00000000E+00  0.00000000E+00  0.00000000E+00
  0.00000000E+00  0.00000000E+00  0.00000000E+00
  0.00000000E+00  0.00000000E+00  0.00000000E+00
  0.00000000E+00  0.00000000E+00  0.00000000E+00
  0.00000000E+00  0.00000000E+00  0.00000000E+00
  0.00000000E+00  0.00000000E+00  0.00000000E+00
  0.00000000E+00  0.00000000E+00  0.00000000E+00
  0.00000000E+00  0.00000000E+00  0.00000000E+00
  0.00000000E+00  0.00000000E+00  0.00000000E+00
  0.00000000E+00  0.00000000E+00  0.00000000E+00
  0.00000000E+00  0.00000000E+00  0.00000000E+00
  0.00000000E+00  0.00000000E+00  0.00000000E+00
  0.00000000E+00  0.00000000E+00  0.00000000E+00
  0.00000000E+00  0.00000000E+00  0.00000000E+00
  0.00000000E+00  0.00000000E+00  0.00000000E+00
  0.00000000E+00  0.00000000E+00  0.00000000E+00
  0.00000000E+00  0.00000000E+00  0.00000000E+00
  0.00000000E+00  0.00000000E+00  0.00000000E+00
  0.00000000E+00  0.00000000E+00  0.00000000E+00
  0.00000000E+00  0.00000000E+00  0.00000000E+00
  0.00000000E+00  0.00000000E+00  0.00000000E+00
  0.00000000E+00  0.00000000E+00  0.00000000E+00
  0.00000000E+00  0.00000000E+00  0.00000000E+00
  0.00000000E+00  0.00000000E+00  0.00000000E+00
  0.00000000E+00  0.00000000E+00  0.00000000E+00
  0.00000000E+00  0.00000000E+00  0.00000000E+00
  0.00000000E+00  0.00000000E+00  0.00000000E+00
  0.00000000E+00  0.00000000E+00  0.00000000E+00
  0.00000000E+00  0.00000000E+00  0.00000000E+00
