5L_3x3_(1\1\1)                          
   1.00000000000000     
     8.4506998061999994    0.0000000000000000    0.0000000000000000
    -4.2253499030999997    7.3185207118999998    0.0000000000000000
     0.0000000000000000    0.0000000000000000   24.2000007629000002
   Ir   Pd   Pt   Rh   Ru   H 
     9     8     9     9     9     1
Direct
  0.5572811265723882  0.1088567986369100  0.0395121746339930
  0.5415898033109177  0.1074025191152165  0.3115441227577473
  0.7783395760577935  0.2319001923404513  0.2171244606755623
  0.0041081138005697  0.3479570440456239  0.3942926198420833
  0.3248525950239974  0.3306220376903538  0.1267039606986425
  0.8770939558142753  0.4439780061830111  0.3062762790857802
  0.9988420610583063  0.6589178504837477  0.1257628068351146
  0.3294633708465080  0.6473166166592880  0.3924493622017181
  0.8912891742384949  0.7796345499002256  0.3067013058547360
  0.0043156503677783  0.0057691824259392  0.3975142092089610
  0.2268320372781384  0.1154462983551949  0.0322972566669284
  0.6455747790917703  0.9919598407445599  0.4004935130173299
  0.2231035694764533  0.4416957826049031  0.3032169279172760
  0.8905571213170552  0.4436614925297336  0.0331459235057781
  0.1079731657286708  0.8853719538500660  0.2167319513050364
  0.4499820722350119  0.8920857654537031  0.2177552465209358
  0.7732003743933895  0.8864385800248111  0.2169876411250738
  0.0025677725694945  0.0042290841710582  0.1264373411249509
  0.8840059399577712  0.1061526555812684  0.3065769219963137
  0.1049030285706054  0.5499376681814577  0.2165057529872594
  0.9961840493123925  0.6604667626370281  0.3965534999332447
  0.3344887945079330  0.6687672411468367  0.1278925363226826
  0.5572959036498694  0.7836719423410973  0.0355456232940853
  0.6661903133947922  0.6639645332558727  0.1279117746702634
  0.6536111238955451  0.6567070005259262  0.3960516310213012
  0.8883780501325100  0.7732982852132518  0.0360959352529599
  0.3373697126801546  0.0044936711128255  0.1265544163672830
  0.4452356185009990  0.2319238010072694  0.2174212501910543
  0.8847840396484763  0.1201386309118488  0.0383817168636289
  0.3349458073288716  0.3344795006291833  0.3931707878523349
  0.5446061813626942  0.4380326297799086  0.0380844980633550
  0.5569721590697745  0.4400546618172685  0.3052361805893130
  0.6683624283670042  0.3294552554139426  0.1274226522432841
  0.2267528243129431  0.7760346686616464  0.0378566300541538
  0.2341561966411717  0.7997325880897713  0.3125694600690947
  0.2267574592675204  0.1037749445634320  0.3084785853121175
  0.1240845543605482  0.2299340671677611  0.2165188064535160
  0.6767064428798965  0.0213253677161716  0.1256301742714066
  0.9967662929250042  0.3232170541613144  0.1274271610080730
  0.2257527610868093  0.4452332152064972  0.0417103386598102
  0.4487436719908756  0.5437950624543012  0.2166625771146735
  0.6733728644642271  0.3404959754852401  0.3926123318594983
  0.7693516397617045  0.5472041316591438  0.2170205631074084
  0.5532107421934501  0.7800791416596026  0.3073514509002053
  0.8057044113580711  0.2417555708067384  0.4349435720892573
 
  0.00000000E+00  0.00000000E+00  0.00000000E+00
  0.00000000E+00  0.00000000E+00  0.00000000E+00
  0.00000000E+00  0.00000000E+00  0.00000000E+00
  0.00000000E+00  0.00000000E+00  0.00000000E+00
  0.00000000E+00  0.00000000E+00  0.00000000E+00
  0.00000000E+00  0.00000000E+00  0.00000000E+00
  0.00000000E+00  0.00000000E+00  0.00000000E+00
  0.00000000E+00  0.00000000E+00  0.00000000E+00
  0.00000000E+00  0.00000000E+00  0.00000000E+00
  0.00000000E+00  0.00000000E+00  0.00000000E+00
  0.00000000E+00  0.00000000E+00  0.00000000E+00
  0.00000000E+00  0.00000000E+00  0.00000000E+00
  0.00000000E+00  0.00000000E+00  0.00000000E+00
  0.00000000E+00  0.00000000E+00  0.00000000E+00
  0.00000000E+00  0.00000000E+00  0.00000000E+00
  0.00000000E+00  0.00000000E+00  0.00000000E+00
  0.00000000E+00  0.00000000E+00  0.00000000E+00
  0.00000000E+00  0.00000000E+00  0.00000000E+00
  0.00000000E+00  0.00000000E+00  0.00000000E+00
  0.00000000E+00  0.00000000E+00  0.00000000E+00
  0.00000000E+00  0.00000000E+00  0.00000000E+00
  0.00000000E+00  0.00000000E+00  0.00000000E+00
  0.00000000E+00  0.00000000E+00  0.00000000E+00
  0.00000000E+00  0.00000000E+00  0.00000000E+00
  0.00000000E+00  0.00000000E+00  0.00000000E+00
  0.00000000E+00  0.00000000E+00  0.00000000E+00
  0.00000000E+00  0.00000000E+00  0.00000000E+00
  0.00000000E+00  0.00000000E+00  0.00000000E+00
  0.00000000E+00  0.00000000E+00  0.00000000E+00
  0.00000000E+00  0.00000000E+00  0.00000000E+00
  0.00000000E+00  0.00000000E+00  0.00000000E+00
  0.00000000E+00  0.00000000E+00  0.00000000E+00
  0.00000000E+00  0.00000000E+00  0.00000000E+00
  0.00000000E+00  0.00000000E+00  0.00000000E+00
  0.00000000E+00  0.00000000E+00  0.00000000E+00
  0.00000000E+00  0.00000000E+00  0.00000000E+00
  0.00000000E+00  0.00000000E+00  0.00000000E+00
  0.00000000E+00  0.00000000E+00  0.00000000E+00
  0.00000000E+00  0.00000000E+00  0.00000000E+00
  0.00000000E+00  0.00000000E+00  0.00000000E+00
  0.00000000E+00  0.00000000E+00  0.00000000E+00
  0.00000000E+00  0.00000000E+00  0.00000000E+00
  0.00000000E+00  0.00000000E+00  0.00000000E+00
  0.00000000E+00  0.00000000E+00  0.00000000E+00
  0.00000000E+00  0.00000000E+00  0.00000000E+00
