step                                    
   1.00000000000000     
     8.4506998061999994    0.0000000000000000    0.0000000000000000
    -4.2253499030999997    7.3185207118999998    0.0000000000000000
     0.0000000000000000    0.0000000000000000   24.2000007629000002
   Ir   Pd   Pt   Rh   Ru   H 
    10     9     9    11     9     1
Direct
  0.9934743051695198  0.0065243774060893  0.1261244899711149
  0.1107953739294442  0.2137796123190687  0.2151630917497885
  0.5631373978057813  0.1227018043096721  0.0397701165351599
  0.2419392704021902  0.4562390806532182  0.0403435407294612
  0.5484200772592784  0.4420831802558831  0.0394188647800504
  0.3335691583434175  0.6740249482113599  0.1247038820410653
  0.3197400787416731  0.6794692733369407  0.3949955520439788
  0.5534050431458909  0.7802009602547662  0.0390051365709806
  0.6646192584145083  0.6706465076355327  0.1276722380533165
  0.8079556318354220  0.5719745113306889  0.4676352654595659
  0.2193923502004234  0.1184811979521309  0.0344794731790569
  0.2202155114976281  0.1107426325881418  0.3058307681852380
  0.7741580751468614  0.2261233656634934  0.2164887800986577
  0.0050482710990490  0.3378185258919740  0.4027707607843214
  0.1070235037177787  0.5588228141686913  0.2159729968711052
  0.3217317089732528  0.3217635139766322  0.4015105945058493
  0.8815870908747193  0.4419972850721474  0.0342591480961237
  0.8838007746701960  0.4493440316474277  0.3112176188209705
  0.2254991754490458  0.7809319607393492  0.0343495381884537
  0.3223167225796972 -0.0012242246727882  0.4003334251120185
  0.8873378332382116  0.1079169944099866  0.3090475427990415
  0.2152148477698528  0.4447240327148019  0.3079974573253859
  0.5574716001553686  0.4439575587690701  0.3074406433977096
  0.4408261116256359  0.5520790421458952  0.2144697544279296
  0.9939157759382274  0.6658536858255832  0.1269277908508597
  0.5532381646162030  0.7868159277257067  0.3059073384911328
  0.4495904214909485  0.8996386799032874  0.2146337747774461
  0.6297325552727517  0.6600858987852989  0.3982680021050062
  0.3365606525989452  0.0095710093251873  0.1283369769378595
  0.5553946536445942  0.1150348196228124  0.3091398165609228
  0.6491527922946546  0.9983229774267970  0.4036504137853836
  0.8714687911513782  0.1040288637699802  0.0366065489260651
  0.0002328143896844  0.3288120213203157  0.1254805598535380
  0.2168843468102897  0.7796606195132153  0.3055098252582000
  0.1039736361484194  0.8941614882071208  0.2154309023836172
  0.8679944909975085  0.7789627664618229  0.0382456050904182
  0.8922147826063498  0.7818965072640035  0.3080688819960218
  0.8215295177633593  0.8822359749057520  0.4779945691143556
  0.7767110599617844  0.2622389393706781  0.4819158200040277
 -0.0010637591441981  0.9853565221237662  0.3970515037426119
  0.4518186682171568  0.2350727095875178  0.2139146394223966
  0.6690191251413361  0.0027464172644580  0.1242554479000827
  0.3279111374531191  0.3247802625511250  0.1275411094815813
  0.6516862728495276  0.3322619187656015  0.1270547403785332
  0.6337121746387768  0.3034808590119156  0.3995874463319016
  0.7625952756068138  0.5577614471707857  0.2150819603325045
  0.0216505339611190  0.6893279390488118  0.3969217844583754
  0.7871575836313867  0.8898367885900190  0.2154019294098423
  0.6895791459150015  0.0050915796782584  0.4781119356809702
 
  0.00000000E+00  0.00000000E+00  0.00000000E+00
  0.00000000E+00  0.00000000E+00  0.00000000E+00
  0.00000000E+00  0.00000000E+00  0.00000000E+00
  0.00000000E+00  0.00000000E+00  0.00000000E+00
  0.00000000E+00  0.00000000E+00  0.00000000E+00
  0.00000000E+00  0.00000000E+00  0.00000000E+00
  0.00000000E+00  0.00000000E+00  0.00000000E+00
  0.00000000E+00  0.00000000E+00  0.00000000E+00
  0.00000000E+00  0.00000000E+00  0.00000000E+00
  0.00000000E+00  0.00000000E+00  0.00000000E+00
  0.00000000E+00  0.00000000E+00  0.00000000E+00
  0.00000000E+00  0.00000000E+00  0.00000000E+00
  0.00000000E+00  0.00000000E+00  0.00000000E+00
  0.00000000E+00  0.00000000E+00  0.00000000E+00
  0.00000000E+00  0.00000000E+00  0.00000000E+00
  0.00000000E+00  0.00000000E+00  0.00000000E+00
  0.00000000E+00  0.00000000E+00  0.00000000E+00
  0.00000000E+00  0.00000000E+00  0.00000000E+00
  0.00000000E+00  0.00000000E+00  0.00000000E+00
  0.00000000E+00  0.00000000E+00  0.00000000E+00
  0.00000000E+00  0.00000000E+00  0.00000000E+00
  0.00000000E+00  0.00000000E+00  0.00000000E+00
  0.00000000E+00  0.00000000E+00  0.00000000E+00
  0.00000000E+00  0.00000000E+00  0.00000000E+00
  0.00000000E+00  0.00000000E+00  0.00000000E+00
  0.00000000E+00  0.00000000E+00  0.00000000E+00
  0.00000000E+00  0.00000000E+00  0.00000000E+00
  0.00000000E+00  0.00000000E+00  0.00000000E+00
  0.00000000E+00  0.00000000E+00  0.00000000E+00
  0.00000000E+00  0.00000000E+00  0.00000000E+00
  0.00000000E+00  0.00000000E+00  0.00000000E+00
  0.00000000E+00  0.00000000E+00  0.00000000E+00
  0.00000000E+00  0.00000000E+00  0.00000000E+00
  0.00000000E+00  0.00000000E+00  0.00000000E+00
  0.00000000E+00  0.00000000E+00  0.00000000E+00
  0.00000000E+00  0.00000000E+00  0.00000000E+00
  0.00000000E+00  0.00000000E+00  0.00000000E+00
  0.00000000E+00  0.00000000E+00  0.00000000E+00
  0.00000000E+00  0.00000000E+00  0.00000000E+00
  0.00000000E+00  0.00000000E+00  0.00000000E+00
  0.00000000E+00  0.00000000E+00  0.00000000E+00
  0.00000000E+00  0.00000000E+00  0.00000000E+00
  0.00000000E+00  0.00000000E+00  0.00000000E+00
  0.00000000E+00  0.00000000E+00  0.00000000E+00
  0.00000000E+00  0.00000000E+00  0.00000000E+00
  0.00000000E+00  0.00000000E+00  0.00000000E+00
  0.00000000E+00  0.00000000E+00  0.00000000E+00
  0.00000000E+00  0.00000000E+00  0.00000000E+00
  0.00000000E+00  0.00000000E+00  0.00000000E+00
