total                                   
   1.00000000000000     
     8.4506998061999994    0.0000000000000000    0.0000000000000000
    -4.2253499030999997    7.3185207118999998    0.0000000000000000
     0.0000000000000000    0.0000000000000000   24.2000007629000002
   Ir   Pd   Pt   Rh   Ru   H 
     9     9     9     9     9     1
Direct
  0.9733233558752463 -0.0034949945816851  0.0055065913407898
  0.4649821806666453 -0.0002763982629077  0.0078158091138389
  0.0596588323128812  0.1876487954133738  0.3179453718333961
  0.5990724256513710  0.7543626379997291  0.2893762976564403
  0.4163190909034155  0.3913188366501396  0.3262678241033147
  0.8286542327289766  0.6712308155286387  0.0419888027948574
  0.2396727838664831  0.0420107721716070  0.3598872049673750
  0.4580627354358525  0.4690033216695071  0.2140450196803917
  0.8877423463662840  0.8371729284761438  0.3529582447660502
  0.6320315000485399  0.8252981460751336  0.1740669156338777
  0.9364883296049425  0.9593759702357824  0.1162871763785112
  0.4943142122502133  0.5378928712608705  0.0887707526370264
  0.1337676829495423  0.8332663951255991  0.1729964505888462
  0.7809950611900012  0.1215653690609098  0.2514940612276687
  0.3303692841399417  0.2239463376598875  0.0085741333079096
  0.6292215676546044  0.3164326206098374  0.0709221493535385
  0.1268731826554049  0.3157533548397017  0.0713014218143899
  0.2791174675326901  0.6026868426695635  0.1555373925785302
  0.9199736551917538  0.8963845223727611  0.2363738151467361
  0.1030480885713638  0.2542074889702381  0.1939833393488307
  0.9551019740836156  0.4808047819772049  0.2157817804296346
  0.0659850309729456  0.6917439134309947  0.3963424881724321
  0.5930804195013224  0.2576945729622266  0.1957239423737616
  0.2377713988322132  0.5424492424831940  0.2770355902981711
  0.2139819318543506  0.4775018969186122  0.3914528013828171
  0.4163590126147270  0.9008662193101222  0.2370495759425707
  0.4594719608237003  0.9604993585310594  0.1169563647496370
  0.1653607254940071  0.8916037280994965  0.0607070672356439
  0.9796111314694030  0.5335522222840555  0.1058756687574011
  0.6117513144504734  0.7837797971126759  0.0079584356943566
  0.2776545881154747  0.6674967242126059  0.0393721648576879
  0.7037879978102638  0.4761428289293131  0.3852488568158400
  0.3930773912595342  0.8443814721975620  0.3527126407512827
  0.9372874620849420  0.4381375407354461  0.0077045337743909
  0.8169764614103784  0.1965006050824075  0.1379400522657767
  0.5666385134678694  0.1914204717661271  0.3168395115276266
  0.7412351449825761  0.5433501173676776  0.2781273353884098
  0.7758053584258765  0.1085573003390151  0.0390456482942233
  0.5749682991553593  0.7062353718905579  0.3936871519894243
  0.2783021190838890  0.1208986177082440  0.2495727183801984
  0.0961464778739562  0.7614977324798170  0.2894623178456818
  0.9130810227853949  0.3922597604538177  0.3308756623358980
  0.3135648328337605  0.1826131176699108  0.1330930259035335
  0.7645142368984669  0.6067897904783727  0.1602463936589786
  0.7371325568833065  0.0335810903901788  0.3613826440250875
  0.2224445792360358  0.4753051092444435  0.4565169138772002
 
  0.00000000E+00  0.00000000E+00  0.00000000E+00
  0.00000000E+00  0.00000000E+00  0.00000000E+00
  0.00000000E+00  0.00000000E+00  0.00000000E+00
  0.00000000E+00  0.00000000E+00  0.00000000E+00
  0.00000000E+00  0.00000000E+00  0.00000000E+00
  0.00000000E+00  0.00000000E+00  0.00000000E+00
  0.00000000E+00  0.00000000E+00  0.00000000E+00
  0.00000000E+00  0.00000000E+00  0.00000000E+00
  0.00000000E+00  0.00000000E+00  0.00000000E+00
  0.00000000E+00  0.00000000E+00  0.00000000E+00
  0.00000000E+00  0.00000000E+00  0.00000000E+00
  0.00000000E+00  0.00000000E+00  0.00000000E+00
  0.00000000E+00  0.00000000E+00  0.00000000E+00
  0.00000000E+00  0.00000000E+00  0.00000000E+00
  0.00000000E+00  0.00000000E+00  0.00000000E+00
  0.00000000E+00  0.00000000E+00  0.00000000E+00
  0.00000000E+00  0.00000000E+00  0.00000000E+00
  0.00000000E+00  0.00000000E+00  0.00000000E+00
  0.00000000E+00  0.00000000E+00  0.00000000E+00
  0.00000000E+00  0.00000000E+00  0.00000000E+00
  0.00000000E+00  0.00000000E+00  0.00000000E+00
  0.00000000E+00  0.00000000E+00  0.00000000E+00
  0.00000000E+00  0.00000000E+00  0.00000000E+00
  0.00000000E+00  0.00000000E+00  0.00000000E+00
  0.00000000E+00  0.00000000E+00  0.00000000E+00
  0.00000000E+00  0.00000000E+00  0.00000000E+00
  0.00000000E+00  0.00000000E+00  0.00000000E+00
  0.00000000E+00  0.00000000E+00  0.00000000E+00
  0.00000000E+00  0.00000000E+00  0.00000000E+00
  0.00000000E+00  0.00000000E+00  0.00000000E+00
  0.00000000E+00  0.00000000E+00  0.00000000E+00
  0.00000000E+00  0.00000000E+00  0.00000000E+00
  0.00000000E+00  0.00000000E+00  0.00000000E+00
  0.00000000E+00  0.00000000E+00  0.00000000E+00
  0.00000000E+00  0.00000000E+00  0.00000000E+00
  0.00000000E+00  0.00000000E+00  0.00000000E+00
  0.00000000E+00  0.00000000E+00  0.00000000E+00
  0.00000000E+00  0.00000000E+00  0.00000000E+00
  0.00000000E+00  0.00000000E+00  0.00000000E+00
  0.00000000E+00  0.00000000E+00  0.00000000E+00
  0.00000000E+00  0.00000000E+00  0.00000000E+00
  0.00000000E+00  0.00000000E+00  0.00000000E+00
  0.00000000E+00  0.00000000E+00  0.00000000E+00
  0.00000000E+00  0.00000000E+00  0.00000000E+00
  0.00000000E+00  0.00000000E+00  0.00000000E+00
  0.00000000E+00  0.00000000E+00  0.00000000E+00
