step                                    
   1.00000000000000     
     8.4506998061999994    0.0000000000000000    0.0000000000000000
    -4.2253499030999997    7.3185207118999998    0.0000000000000000
     0.0000000000000000    0.0000000000000000   24.2000007629000002
   Ir   Pd   Pt   Rh   Ru   H 
     9    10     9    10    10     1
Direct
  0.9959831216728624  0.0049560880566076  0.1251917118625392
  0.1124590570929470  0.2109708595706793  0.2145952062466703
  0.5651941883081915  0.1208291368176381  0.0388046727054885
  0.2439142918507558  0.4541989151950995  0.0395686374899855
  0.5505317317764734  0.4403139347731785  0.0386077341935436
  0.3353922532081872  0.6726827703098404  0.1238118503508263
  0.3284831733006011  0.6781180481235413  0.3941071527437047
  0.5557533870281609  0.7780347253137171  0.0382687313749003
  0.6681977573884362  0.6689802848890817  0.1265298998070956
  0.2218655594676096  0.1163383275261797  0.0336299197728916
  0.2207710835563022  0.1087906996095005  0.3060022558776572
  0.7767293696727487  0.2239104914004008  0.2158391952506473
  0.0226559076132222  0.3405756793697869  0.4029272274636908
  0.1090340252605162  0.5570253627690189  0.2154598521076292
  0.3348515102300476  0.3283981006187007  0.4011533983032817
  0.8835606691135310  0.4401970363370669  0.0334767818762069
  0.8864860026996628  0.4452289657092534  0.3118172513330662
  0.2281915584168688  0.7792448204417757  0.0333389610834375
  0.8101384385486031  0.9046605380799695  0.4840727327269377
  0.3254991920328427 -0.0045592671444609  0.3990767668680386
  0.8883252549439508  0.1060835465472809  0.3082016149359041
  0.2190388020211154  0.4434599420098797  0.3065748310687323
  0.5602794001491181  0.4431295276962889  0.3059264160600695
  0.4438310375386030  0.5505232218484689  0.2129341766561347
  0.9971871875061328  0.6642191015256097  0.1259640735725719
  0.5569587083276530  0.7824377578896313  0.3048752065896708
  0.4518656228976246  0.8960006695239003  0.2141111022190713
  0.6529738686587852  0.6644882181260384  0.3973676908609604
  0.3400657391186980  0.0080724647520493  0.1276408801168085
  0.5555637717166513  0.1132492341220882  0.3071221770005191
  0.6537341407741999 -0.0072596749934950  0.4015532534187152
  0.8738883047211338  0.1026312259186387  0.0359043868924156
  0.0029609245615015  0.3272990402087703  0.1248232765200966
  0.2189753058461017  0.7775002248864791  0.3052986781739155
  0.1068510823930492  0.8920840068750452  0.2145705682526454
  0.8704373388845769  0.7775332870271923  0.0371626627918952
  0.8955114779512309  0.7780617306258171  0.3064845087709923
  0.8249495190094212  0.5654541165112523  0.4724403912611808
 -0.0055691845276156  0.9803786504765152  0.3950711897439185
  0.4539579275080807  0.2336768946051252  0.2136187596544807
  0.6708880553926189  0.0011604611203624  0.1235056724084491
  0.3295433655924116  0.3215513941798260  0.1265385214043044
  0.6534359758094392  0.3294545170650314  0.1262589738514657
  0.6339116371118314  0.3047405654560752  0.3988160871852812
  0.7653949970560937  0.5553197019400861  0.2138413123661993
  0.0232616814240670  0.6869598361556277  0.3969374244902028
  0.7899400280419414  0.8865700884742689  0.2144410297313790
  0.7772486054921310  0.2463040074873599  0.4722243461562389
  0.8581669298408707  0.7451503611722059  0.5155508514075400
 
  0.00000000E+00  0.00000000E+00  0.00000000E+00
  0.00000000E+00  0.00000000E+00  0.00000000E+00
  0.00000000E+00  0.00000000E+00  0.00000000E+00
  0.00000000E+00  0.00000000E+00  0.00000000E+00
  0.00000000E+00  0.00000000E+00  0.00000000E+00
  0.00000000E+00  0.00000000E+00  0.00000000E+00
  0.00000000E+00  0.00000000E+00  0.00000000E+00
  0.00000000E+00  0.00000000E+00  0.00000000E+00
  0.00000000E+00  0.00000000E+00  0.00000000E+00
  0.00000000E+00  0.00000000E+00  0.00000000E+00
  0.00000000E+00  0.00000000E+00  0.00000000E+00
  0.00000000E+00  0.00000000E+00  0.00000000E+00
  0.00000000E+00  0.00000000E+00  0.00000000E+00
  0.00000000E+00  0.00000000E+00  0.00000000E+00
  0.00000000E+00  0.00000000E+00  0.00000000E+00
  0.00000000E+00  0.00000000E+00  0.00000000E+00
  0.00000000E+00  0.00000000E+00  0.00000000E+00
  0.00000000E+00  0.00000000E+00  0.00000000E+00
  0.00000000E+00  0.00000000E+00  0.00000000E+00
  0.00000000E+00  0.00000000E+00  0.00000000E+00
  0.00000000E+00  0.00000000E+00  0.00000000E+00
  0.00000000E+00  0.00000000E+00  0.00000000E+00
  0.00000000E+00  0.00000000E+00  0.00000000E+00
  0.00000000E+00  0.00000000E+00  0.00000000E+00
  0.00000000E+00  0.00000000E+00  0.00000000E+00
  0.00000000E+00  0.00000000E+00  0.00000000E+00
  0.00000000E+00  0.00000000E+00  0.00000000E+00
  0.00000000E+00  0.00000000E+00  0.00000000E+00
  0.00000000E+00  0.00000000E+00  0.00000000E+00
  0.00000000E+00  0.00000000E+00  0.00000000E+00
  0.00000000E+00  0.00000000E+00  0.00000000E+00
  0.00000000E+00  0.00000000E+00  0.00000000E+00
  0.00000000E+00  0.00000000E+00  0.00000000E+00
  0.00000000E+00  0.00000000E+00  0.00000000E+00
  0.00000000E+00  0.00000000E+00  0.00000000E+00
  0.00000000E+00  0.00000000E+00  0.00000000E+00
  0.00000000E+00  0.00000000E+00  0.00000000E+00
  0.00000000E+00  0.00000000E+00  0.00000000E+00
  0.00000000E+00  0.00000000E+00  0.00000000E+00
  0.00000000E+00  0.00000000E+00  0.00000000E+00
  0.00000000E+00  0.00000000E+00  0.00000000E+00
  0.00000000E+00  0.00000000E+00  0.00000000E+00
  0.00000000E+00  0.00000000E+00  0.00000000E+00
  0.00000000E+00  0.00000000E+00  0.00000000E+00
  0.00000000E+00  0.00000000E+00  0.00000000E+00
  0.00000000E+00  0.00000000E+00  0.00000000E+00
  0.00000000E+00  0.00000000E+00  0.00000000E+00
  0.00000000E+00  0.00000000E+00  0.00000000E+00
  0.00000000E+00  0.00000000E+00  0.00000000E+00
