step                                    
   1.00000000000000     
     8.4506998061999994    0.0000000000000000    0.0000000000000000
    -4.2253499030999997    7.3185207118999998    0.0000000000000000
     0.0000000000000000    0.0000000000000000   24.2000007629000002
   Ir   Pd   Pt   Rh   Ru
    10     9     9    11     9
Direct
  0.9960749241039661  0.0042697953588614  0.1265354738734596
  0.1122373065894285  0.2107921689610811  0.2156847520539377
  0.5654339208881697  0.1205169771210170  0.0401690398125853
  0.2439541526362420  0.4538728916610237  0.0406720601720207
  0.5507080702939080  0.4400332780808388  0.0398746655507768
  0.3357879150756340  0.6715723150944349  0.1250649288221784
  0.3235680646719490  0.6786665825732491  0.3955891737990733
  0.5555798002454270  0.7780532454944793  0.0394388128725697
  0.6668573226798203  0.6684254940095178  0.1281724016257535
  0.8089986487212993  0.5696822266036936  0.4675066547854860
  0.2217397392894816  0.1160795780451141  0.0347416058809151
  0.2237771358680896  0.1091456413217368  0.3059665678402379
  0.7768847377504288  0.2238782226771662  0.2167740336038224
  0.0084107367793543  0.3344317462849518  0.4040576150616533
  0.1094470905253054  0.5564422377196864  0.2163788259384529
  0.3243838572541045  0.3185861784239258  0.4018642708870297
  0.8837390730309167  0.4397963206388198  0.0346607300846979
  0.8863002386471662  0.4464626046349259  0.3118068996553737
  0.2276623930880234  0.7786013469672113  0.0347485596636883
  0.3253389757468976 -0.0035810684896088  0.4008115965427757
  0.8892262608459787  0.1051548896824751  0.3102199428501494
  0.2171362658801980  0.4421385316761429  0.3086577176313805
  0.5601344539635921  0.4419458144349508  0.3077034472043752
  0.4425124530359866  0.5492758626886638  0.2149140294034868
  0.9960804537118582  0.6636247568960953  0.1273197498014079
  0.5555984948811845  0.7833162168105472  0.3057716168034059
  0.4519929688862191  0.8973145473219893  0.2148119651951936
  0.6294587792291754  0.6571697728168755  0.3986380110829235
  0.3385551751610066  0.0075680405812005  0.1286604887910654
  0.5580104721297451  0.1126864396231528  0.3087900309704681
  0.6466789236363965  0.9943476683429209  0.4036491944745957
  0.8735942327733568  0.1017791937333976  0.0369466253213402
  0.0025342331456833  0.3265802190443233  0.1258362663824749
  0.2191762470813997  0.7771609192790777  0.3058695633687700
  0.1062747577143174  0.8915293129805368  0.2159300143895699
  0.8700550312649240  0.7766680704874721  0.0386235748858444
  0.8949211067024465  0.7798650807336541  0.3091100812677771
  0.8236557414930977  0.8833950130871271  0.4758537127426372
  0.7764388458975149  0.2595460711083240  0.4815848000479356
  0.0075278835644622  0.9853121531611883  0.3976612868415744
  0.4544201450907975  0.2323602915694868  0.2142110920520839
  0.6718031959217030  0.0003607252382631  0.1246195692586011
  0.3297407722532233  0.3224518069088153  0.1279084054040741
  0.6542051878651706  0.3303285722331589  0.1274678146625892
  0.6357852897657741  0.3001592241013794  0.3993383352797666
  0.7650271480120893  0.5554155912204742  0.2155106213667018
  0.0249268664729238  0.6852196181839668  0.3973597179334944
  0.7899242817341479  0.8876974278722073  0.2159236620598224
 
  0.00000000E+00  0.00000000E+00  0.00000000E+00
  0.00000000E+00  0.00000000E+00  0.00000000E+00
  0.00000000E+00  0.00000000E+00  0.00000000E+00
  0.00000000E+00  0.00000000E+00  0.00000000E+00
  0.00000000E+00  0.00000000E+00  0.00000000E+00
  0.00000000E+00  0.00000000E+00  0.00000000E+00
  0.00000000E+00  0.00000000E+00  0.00000000E+00
  0.00000000E+00  0.00000000E+00  0.00000000E+00
  0.00000000E+00  0.00000000E+00  0.00000000E+00
  0.00000000E+00  0.00000000E+00  0.00000000E+00
  0.00000000E+00  0.00000000E+00  0.00000000E+00
  0.00000000E+00  0.00000000E+00  0.00000000E+00
  0.00000000E+00  0.00000000E+00  0.00000000E+00
  0.00000000E+00  0.00000000E+00  0.00000000E+00
  0.00000000E+00  0.00000000E+00  0.00000000E+00
  0.00000000E+00  0.00000000E+00  0.00000000E+00
  0.00000000E+00  0.00000000E+00  0.00000000E+00
  0.00000000E+00  0.00000000E+00  0.00000000E+00
  0.00000000E+00  0.00000000E+00  0.00000000E+00
  0.00000000E+00  0.00000000E+00  0.00000000E+00
  0.00000000E+00  0.00000000E+00  0.00000000E+00
  0.00000000E+00  0.00000000E+00  0.00000000E+00
  0.00000000E+00  0.00000000E+00  0.00000000E+00
  0.00000000E+00  0.00000000E+00  0.00000000E+00
  0.00000000E+00  0.00000000E+00  0.00000000E+00
  0.00000000E+00  0.00000000E+00  0.00000000E+00
  0.00000000E+00  0.00000000E+00  0.00000000E+00
  0.00000000E+00  0.00000000E+00  0.00000000E+00
  0.00000000E+00  0.00000000E+00  0.00000000E+00
  0.00000000E+00  0.00000000E+00  0.00000000E+00
  0.00000000E+00  0.00000000E+00  0.00000000E+00
  0.00000000E+00  0.00000000E+00  0.00000000E+00
  0.00000000E+00  0.00000000E+00  0.00000000E+00
  0.00000000E+00  0.00000000E+00  0.00000000E+00
  0.00000000E+00  0.00000000E+00  0.00000000E+00
  0.00000000E+00  0.00000000E+00  0.00000000E+00
  0.00000000E+00  0.00000000E+00  0.00000000E+00
  0.00000000E+00  0.00000000E+00  0.00000000E+00
  0.00000000E+00  0.00000000E+00  0.00000000E+00
  0.00000000E+00  0.00000000E+00  0.00000000E+00
  0.00000000E+00  0.00000000E+00  0.00000000E+00
  0.00000000E+00  0.00000000E+00  0.00000000E+00
  0.00000000E+00  0.00000000E+00  0.00000000E+00
  0.00000000E+00  0.00000000E+00  0.00000000E+00
  0.00000000E+00  0.00000000E+00  0.00000000E+00
  0.00000000E+00  0.00000000E+00  0.00000000E+00
  0.00000000E+00  0.00000000E+00  0.00000000E+00
  0.00000000E+00  0.00000000E+00  0.00000000E+00
