step                                    
   1.00000000000000     
     8.4506998061999994    0.0000000000000000    0.0000000000000000
    -4.2253499030999997    7.3185207118999998    0.0000000000000000
     0.0000000000000000    0.0000000000000000   24.2000007629000002
   Ir   Pd   Pt   Rh   Ru
     9    11     9     9    10
Direct
  0.5561423622084823  0.1079515367424381  0.0397040707764469
  0.5454069853732312  0.1127280059574265  0.3087487543154691
  0.7736590238636697  0.2287228744937035  0.2178901422022263
  0.0298414607805654  0.3489039063519379  0.3976142416876761
  0.3248318950512873  0.3292049274590892  0.1265311171398192
  0.8728648504497719  0.4373842619324531  0.3087093304950935
  0.9977796340179272  0.6578306685578430  0.1258483755247758
  0.3295233972494883  0.6525052258883360  0.3927350116955371
  0.8892889103135854  0.7770785636386693  0.3070506355586849
  0.0034200830292725  0.0084492967223026  0.3996774302613611
  0.2251546854244596  0.1145250909860084  0.0320840080697612
  0.3295876086693753  0.0027195700058310  0.4014521277684681
  0.6374297241284187 -0.0172066856242610  0.3971713857440094
  0.2259530303105619  0.4421546927637836  0.3036287896273123
  0.8890967148675798  0.4420329017824919  0.0331279261197021
  0.1079518947032321  0.8839555704630365  0.2164302380751596
  0.4501187185448929  0.8882945107762160  0.2175248786186811
  0.7756427844169054  0.8884842502418966  0.2168771074140194
  0.7769046285014310  0.9234316233167620  0.4851007151565668
  0.7869614831095613  0.5452231799654619  0.4850926617104906
  0.0028860344968437  0.0043657947738371  0.1263950078162263
  0.8862291472214542  0.1096686418460130  0.3072531981764968
  0.1010929044609166  0.5456894899783618  0.2170120694464465
  0.0057558890190007  0.6622181426159931  0.3983505672863735
  0.3321542132808780  0.6663571402805933  0.1284384788755742
  0.5551962283890552  0.7812323465040130  0.0360954230325279
  0.6676915888532473  0.6630839611273441  0.1279799406215067
  0.6581520644426250  0.6609717391400207  0.3990854129097306
  0.8876116589140717  0.7725052675131657  0.0363039512536926
  0.3370801347717150  0.0036110288645898  0.1264859243169822
  0.4437604062028587  0.2316327312267660  0.2175092332547665
  0.8822929573419124  0.1170597196390539  0.0380884306588590
  0.3403499002394293  0.3409985706793681  0.3958092836343143
  0.5441306072945203  0.4351527274364502  0.0381265815502255
  0.5597063715381186  0.4475496547951856  0.3061504849578415
  0.6690676879190759  0.3290928034005925  0.1279807833377428
  0.2267926146263909  0.7744762840639902  0.0382957475555234
  0.2240883507922858  0.7864386878049086  0.3092153907027444
  0.2174793042206204  0.0979384828911616  0.3063508208784613
  0.1257189074746605  0.2323342514910547  0.2164702517344082
  0.6775451067820645  0.0210155750219566  0.1256967878222718
  0.9960216100766566  0.3222152218505653  0.1265199976693274
  0.2259429314878344  0.4455413833114836  0.0416479323684659
  0.4491559608689664  0.5440817718067351  0.2153765171060551
  0.6426186410381340  0.3310047028135880  0.3982363319435389
  0.7674454794886064  0.5445081328522128  0.2177622936998294
  0.5588038423375160  0.7709806877443227  0.3065692964191300
  0.8068995054068412  0.2489605681052447  0.4647649250096685
 
  0.00000000E+00  0.00000000E+00  0.00000000E+00
  0.00000000E+00  0.00000000E+00  0.00000000E+00
  0.00000000E+00  0.00000000E+00  0.00000000E+00
  0.00000000E+00  0.00000000E+00  0.00000000E+00
  0.00000000E+00  0.00000000E+00  0.00000000E+00
  0.00000000E+00  0.00000000E+00  0.00000000E+00
  0.00000000E+00  0.00000000E+00  0.00000000E+00
  0.00000000E+00  0.00000000E+00  0.00000000E+00
  0.00000000E+00  0.00000000E+00  0.00000000E+00
  0.00000000E+00  0.00000000E+00  0.00000000E+00
  0.00000000E+00  0.00000000E+00  0.00000000E+00
  0.00000000E+00  0.00000000E+00  0.00000000E+00
  0.00000000E+00  0.00000000E+00  0.00000000E+00
  0.00000000E+00  0.00000000E+00  0.00000000E+00
  0.00000000E+00  0.00000000E+00  0.00000000E+00
  0.00000000E+00  0.00000000E+00  0.00000000E+00
  0.00000000E+00  0.00000000E+00  0.00000000E+00
  0.00000000E+00  0.00000000E+00  0.00000000E+00
  0.00000000E+00  0.00000000E+00  0.00000000E+00
  0.00000000E+00  0.00000000E+00  0.00000000E+00
  0.00000000E+00  0.00000000E+00  0.00000000E+00
  0.00000000E+00  0.00000000E+00  0.00000000E+00
  0.00000000E+00  0.00000000E+00  0.00000000E+00
  0.00000000E+00  0.00000000E+00  0.00000000E+00
  0.00000000E+00  0.00000000E+00  0.00000000E+00
  0.00000000E+00  0.00000000E+00  0.00000000E+00
  0.00000000E+00  0.00000000E+00  0.00000000E+00
  0.00000000E+00  0.00000000E+00  0.00000000E+00
  0.00000000E+00  0.00000000E+00  0.00000000E+00
  0.00000000E+00  0.00000000E+00  0.00000000E+00
  0.00000000E+00  0.00000000E+00  0.00000000E+00
  0.00000000E+00  0.00000000E+00  0.00000000E+00
  0.00000000E+00  0.00000000E+00  0.00000000E+00
  0.00000000E+00  0.00000000E+00  0.00000000E+00
  0.00000000E+00  0.00000000E+00  0.00000000E+00
  0.00000000E+00  0.00000000E+00  0.00000000E+00
  0.00000000E+00  0.00000000E+00  0.00000000E+00
  0.00000000E+00  0.00000000E+00  0.00000000E+00
  0.00000000E+00  0.00000000E+00  0.00000000E+00
  0.00000000E+00  0.00000000E+00  0.00000000E+00
  0.00000000E+00  0.00000000E+00  0.00000000E+00
  0.00000000E+00  0.00000000E+00  0.00000000E+00
  0.00000000E+00  0.00000000E+00  0.00000000E+00
  0.00000000E+00  0.00000000E+00  0.00000000E+00
  0.00000000E+00  0.00000000E+00  0.00000000E+00
  0.00000000E+00  0.00000000E+00  0.00000000E+00
  0.00000000E+00  0.00000000E+00  0.00000000E+00
  0.00000000E+00  0.00000000E+00  0.00000000E+00
