5L_3x3_(1\1\1)                          
   1.00000000000000     
     8.4506998061999994    0.0000000000000000    0.0000000000000000
    -4.2253499030999997    7.3185207118999998    0.0000000000000000
     0.0000000000000000    0.0000000000000000   24.2000007629000002
   Ir   Pd   Pt   Rh   Ru   H 
     9     9     9     9     8     1
Direct
  0.9980530642172853  0.0047331764008635  0.1259532388640769
  0.1127572327262322  0.2109774046439213  0.2152418257997870
  0.5661673204327201  0.1202192015523483  0.0402940794965742
  0.2439155017050710  0.4533447658724546  0.0403353600116672
  0.5513505268663471  0.4394674652624859  0.0392969460369087
  0.3363678018257533  0.6701443148576344  0.1250106902805449
  0.3482323622854979  0.6805096195172390  0.3932879358196969
  0.5565293744421356  0.7790284411832870  0.0393153937897823
  0.6665445281078562  0.6674899166141346  0.1278862057382136
  0.2226501622595274  0.1159732697747986  0.0343480845434347
  0.2223004727720518  0.1100708723945280  0.3072546736423615
  0.7756351774223861  0.2242534795257608  0.2155968246305689
  0.9996222463279881  0.3324510599562363  0.4010615624631005
  0.1104760398915155  0.5578595879164993  0.2162167880072577
  0.3357714492433306  0.3408833393481205  0.4024239890343280
  0.8841423428129557  0.4393427929570610  0.0345034448534946
  0.8941517209868111  0.4581276620591835  0.3108438385379854
  0.2293743067513504  0.7793826745899615  0.0344753920720525
  0.3278876899779159 -0.0084196177721079  0.3989608858156320
  0.8904153901759936  0.1145401286197092  0.3064493664825207
  0.2205254479770972  0.4463273329268451  0.3076245805749639
  0.5634032493017109  0.4436444870775415  0.3067460640291575
  0.4451086108202025  0.5495761269676741  0.2150667341068123
  0.9972766189249661  0.6634931778065934  0.1267805101817920
  0.5614433293101601  0.7854686271645652  0.3033578337915857
  0.4463143099266645  0.8969819800347658  0.2160071700699526
  0.6655872247716527  0.6729249757919835  0.3967370828640348
  0.3390251741214758  0.0073093459192172  0.1286549091523067
  0.5549146468743471  0.1150506522885699  0.3084932625457483
  0.6658062654307386  0.0034369656917149  0.3972965359768527
  0.8741074085363967  0.1012181743475498  0.0374979075523418
  0.0042635812059821  0.3271607669706476  0.1254003091871760
  0.2167464145076169  0.7758837687821568  0.3106528416851844
  0.1047920188892506  0.8901069901763250  0.2156326686591411
  0.8705537861677884  0.7765048443460119  0.0381998979722913
  0.9015194872118796  0.7825866371958268  0.3088845600989109
  0.9806594951818164  0.9877298870897931  0.3937131584865909
  0.4529422867502316  0.2313119640448643  0.2143576196584428
  0.6693416311742479  0.9965001782313450  0.1257305427698073
  0.3323122327865426  0.3249975385696563  0.1275029367495756
  0.6530236543479944  0.3302555229801877  0.1271877683250950
  0.6514479810073659  0.3107721752876235  0.3937230001864591
  0.7679233910172513  0.5552224309366267  0.2144738677633865
  0.7932750925113393  0.8882111820996487  0.2156272063119648
  0.4416680594468827  0.2114517484191243  0.4369089828173180
 
  0.00000000E+00  0.00000000E+00  0.00000000E+00
  0.00000000E+00  0.00000000E+00  0.00000000E+00
  0.00000000E+00  0.00000000E+00  0.00000000E+00
  0.00000000E+00  0.00000000E+00  0.00000000E+00
  0.00000000E+00  0.00000000E+00  0.00000000E+00
  0.00000000E+00  0.00000000E+00  0.00000000E+00
  0.00000000E+00  0.00000000E+00  0.00000000E+00
  0.00000000E+00  0.00000000E+00  0.00000000E+00
  0.00000000E+00  0.00000000E+00  0.00000000E+00
  0.00000000E+00  0.00000000E+00  0.00000000E+00
  0.00000000E+00  0.00000000E+00  0.00000000E+00
  0.00000000E+00  0.00000000E+00  0.00000000E+00
  0.00000000E+00  0.00000000E+00  0.00000000E+00
  0.00000000E+00  0.00000000E+00  0.00000000E+00
  0.00000000E+00  0.00000000E+00  0.00000000E+00
  0.00000000E+00  0.00000000E+00  0.00000000E+00
  0.00000000E+00  0.00000000E+00  0.00000000E+00
  0.00000000E+00  0.00000000E+00  0.00000000E+00
  0.00000000E+00  0.00000000E+00  0.00000000E+00
  0.00000000E+00  0.00000000E+00  0.00000000E+00
  0.00000000E+00  0.00000000E+00  0.00000000E+00
  0.00000000E+00  0.00000000E+00  0.00000000E+00
  0.00000000E+00  0.00000000E+00  0.00000000E+00
  0.00000000E+00  0.00000000E+00  0.00000000E+00
  0.00000000E+00  0.00000000E+00  0.00000000E+00
  0.00000000E+00  0.00000000E+00  0.00000000E+00
  0.00000000E+00  0.00000000E+00  0.00000000E+00
  0.00000000E+00  0.00000000E+00  0.00000000E+00
  0.00000000E+00  0.00000000E+00  0.00000000E+00
  0.00000000E+00  0.00000000E+00  0.00000000E+00
  0.00000000E+00  0.00000000E+00  0.00000000E+00
  0.00000000E+00  0.00000000E+00  0.00000000E+00
  0.00000000E+00  0.00000000E+00  0.00000000E+00
  0.00000000E+00  0.00000000E+00  0.00000000E+00
  0.00000000E+00  0.00000000E+00  0.00000000E+00
  0.00000000E+00  0.00000000E+00  0.00000000E+00
  0.00000000E+00  0.00000000E+00  0.00000000E+00
  0.00000000E+00  0.00000000E+00  0.00000000E+00
  0.00000000E+00  0.00000000E+00  0.00000000E+00
  0.00000000E+00  0.00000000E+00  0.00000000E+00
  0.00000000E+00  0.00000000E+00  0.00000000E+00
  0.00000000E+00  0.00000000E+00  0.00000000E+00
  0.00000000E+00  0.00000000E+00  0.00000000E+00
  0.00000000E+00  0.00000000E+00  0.00000000E+00
  0.00000000E+00  0.00000000E+00  0.00000000E+00
