step                                    
   1.00000000000000     
     8.4506998061999994    0.0000000000000000    0.0000000000000000
    -4.2253499030999997    7.3185207118999998    0.0000000000000000
     0.0000000000000000    0.0000000000000000   24.2000007629000002
   Ir   Pd   Pt   Rh   Ru   H 
     9    10     9    10    10     1
Direct
  0.9941071516463769 -0.0005316643047656  0.1259717432901045
  0.1104699961829579  0.2050222358598798  0.2155427423917524
  0.5631561857384020  0.1149643953405114  0.0395362124426227
  0.2416617313938801  0.4484191162465217  0.0403453292335217
  0.5485213641315039  0.4349298025397006  0.0392989470987128
  0.3329255725495502  0.6669740557754679  0.1245095336621533
  0.3286008779216046  0.6742722100129962  0.3946466170485879
  0.5533711714516327  0.7727502800405143  0.0389384819781038
  0.6646486771897445  0.6627684400497670  0.1274352797164731
  0.2198487771892857  0.1105461938230818  0.0342809480168967
  0.2205675234693901  0.1023220276624623  0.3069957633286486
  0.7739264918097439  0.2182576426529513  0.2165182406427396
  0.0103992966097432  0.3295357395296210  0.4041553544569057
  0.1060597032124656  0.5509793354127758  0.2163143051996180
  0.3308927172495541  0.3233051578056123  0.4014193132982226
  0.8814326678657215  0.4345669703781059  0.0343557626109537
  0.8847001747870341  0.4411855531446580  0.3121008674115224
  0.2253185696329045  0.7733524200261988  0.0340815314195733
  0.8051874853751266  0.8986684312133402  0.4831337061095528
  0.3313499884576152 -0.0052596978998589  0.4013717836335755
  0.8877507812972200  0.1009147329887280  0.3087548739771420
  0.2151266115928889  0.4372686294655674  0.3081207080672937
  0.5572056786237548  0.4371629453762321  0.3062790807460090
  0.4392312923368799  0.5436982374093646  0.2139651211267622
  0.9944004671479134  0.6587617024668049  0.1268210282403181
  0.5560094330887025  0.7772281482162812  0.3051769076620942
  0.4488397313059353  0.8906872093135464  0.2146024719568791
  0.6510282717953153  0.6557148239936240  0.3984313259699470
  0.3373651263147353  0.0024752244467123  0.1283121980260178
  0.5553516335973159  0.1074621787052263  0.3086646164809156
  0.6569752789001796 -0.0129607076544677  0.4007881279936509
  0.8718999578897092  0.0967978064938168  0.0366082134695397
  0.0005561252487712  0.3212816037944609  0.1257189759663604
  0.2191854694419780  0.7726081866629575  0.3061484230162914
  0.1047874744338440  0.8864170020829700  0.2154305829903140
  0.8680431856947187  0.7720524607515407  0.0380483505950844
  0.8944214043203453  0.7733159449462613  0.3071098623385132
  0.8211658387650642  0.5537625278351122  0.4710207814295749
 -0.0036709232400773  0.9731203465422943  0.3961265736727039
  0.4516770137302665  0.2279446402690955  0.2141883271371295
  0.6691226146327776 -0.0040852157962905  0.1240910054380001
  0.3271353784911583  0.3161281172875458  0.1272349981826303
  0.6511859815785016  0.3238369248877921  0.1269064638479907
  0.6374612113118975  0.3094211044676801  0.3991925513012596
  0.7627417277696438  0.5502066293987875  0.2146536327395124
  0.0261917387411730  0.6886011716625393  0.3978755996304122
  0.7873679682425682  0.8805300595297836  0.2151070810332900
  0.7422732491068207  0.2162949737537105  0.4766557316892697
  0.9676338799757495  0.3559536073927769  0.4790539252848501
 
  0.00000000E+00  0.00000000E+00  0.00000000E+00
  0.00000000E+00  0.00000000E+00  0.00000000E+00
  0.00000000E+00  0.00000000E+00  0.00000000E+00
  0.00000000E+00  0.00000000E+00  0.00000000E+00
  0.00000000E+00  0.00000000E+00  0.00000000E+00
  0.00000000E+00  0.00000000E+00  0.00000000E+00
  0.00000000E+00  0.00000000E+00  0.00000000E+00
  0.00000000E+00  0.00000000E+00  0.00000000E+00
  0.00000000E+00  0.00000000E+00  0.00000000E+00
  0.00000000E+00  0.00000000E+00  0.00000000E+00
  0.00000000E+00  0.00000000E+00  0.00000000E+00
  0.00000000E+00  0.00000000E+00  0.00000000E+00
  0.00000000E+00  0.00000000E+00  0.00000000E+00
  0.00000000E+00  0.00000000E+00  0.00000000E+00
  0.00000000E+00  0.00000000E+00  0.00000000E+00
  0.00000000E+00  0.00000000E+00  0.00000000E+00
  0.00000000E+00  0.00000000E+00  0.00000000E+00
  0.00000000E+00  0.00000000E+00  0.00000000E+00
  0.00000000E+00  0.00000000E+00  0.00000000E+00
  0.00000000E+00  0.00000000E+00  0.00000000E+00
  0.00000000E+00  0.00000000E+00  0.00000000E+00
  0.00000000E+00  0.00000000E+00  0.00000000E+00
  0.00000000E+00  0.00000000E+00  0.00000000E+00
  0.00000000E+00  0.00000000E+00  0.00000000E+00
  0.00000000E+00  0.00000000E+00  0.00000000E+00
  0.00000000E+00  0.00000000E+00  0.00000000E+00
  0.00000000E+00  0.00000000E+00  0.00000000E+00
  0.00000000E+00  0.00000000E+00  0.00000000E+00
  0.00000000E+00  0.00000000E+00  0.00000000E+00
  0.00000000E+00  0.00000000E+00  0.00000000E+00
  0.00000000E+00  0.00000000E+00  0.00000000E+00
  0.00000000E+00  0.00000000E+00  0.00000000E+00
  0.00000000E+00  0.00000000E+00  0.00000000E+00
  0.00000000E+00  0.00000000E+00  0.00000000E+00
  0.00000000E+00  0.00000000E+00  0.00000000E+00
  0.00000000E+00  0.00000000E+00  0.00000000E+00
  0.00000000E+00  0.00000000E+00  0.00000000E+00
  0.00000000E+00  0.00000000E+00  0.00000000E+00
  0.00000000E+00  0.00000000E+00  0.00000000E+00
  0.00000000E+00  0.00000000E+00  0.00000000E+00
  0.00000000E+00  0.00000000E+00  0.00000000E+00
  0.00000000E+00  0.00000000E+00  0.00000000E+00
  0.00000000E+00  0.00000000E+00  0.00000000E+00
  0.00000000E+00  0.00000000E+00  0.00000000E+00
  0.00000000E+00  0.00000000E+00  0.00000000E+00
  0.00000000E+00  0.00000000E+00  0.00000000E+00
  0.00000000E+00  0.00000000E+00  0.00000000E+00
  0.00000000E+00  0.00000000E+00  0.00000000E+00
  0.00000000E+00  0.00000000E+00  0.00000000E+00
