fRu2Ru3Pt1                              
   1.00000000000000     
     8.4506998061999994    0.0000000000000000    0.0000000000000000
    -4.2253499030999997    7.3185207118999998    0.0000000000000000
     0.0000000000000000    0.0000000000000000   24.2000007629000002
   Ir   Pd   Pt   Rh   Ru   H 
     9     9     9     9     9     1
Direct
  0.9967400511297959  0.0044450139623743  0.1259885500335739
  0.1108203363882897  0.2095707704882822  0.2154547886790570
  0.5652824877853229  0.1204679964667401  0.0397333922773481
  0.2426551256965696  0.4528492802734640  0.0404231723213397
  0.5501992442109920  0.4401129669319196  0.0391625675927373
  0.3375306423070266  0.6716271525259926  0.1251128747122320
  0.3281062871095722  0.6728718160406342  0.3948974931280845
  0.5556431932403805  0.7773100419263929  0.0385147626892405
  0.6652644034415079  0.6683333492075220  0.1275274232837105
  0.2226518126529003  0.1156970599360472  0.0343939321393921
  0.2228916707694165  0.1089133062090494  0.3074009397072249
  0.7743367266543159  0.2219873355417954  0.2153074861792442
  0.9936458103007322  0.3320017561133084  0.4022435989512764
  0.1117326846717315  0.5586862838467516  0.2158000654406340
  0.3372106398762624  0.3372349513240016  0.4010875428905477
  0.8842186602144301  0.4399864504668854  0.0343009908962096
  0.8901536205479529  0.4469668246706480  0.3071458036919617
  0.2286973158301100  0.7790517552882386  0.0342881508974463
  0.3385066638006338  0.0025451404637842  0.4015354631032381
  0.8899998650038502  0.1096379226344751  0.3075998787184196
  0.2192954034212965  0.4423176465479151  0.3074501921239474
  0.5594331442533484  0.4408800502225326  0.3058206668489137
  0.4458827006548650  0.5499953065340561  0.2152219781074765
  0.9969031428622476  0.6640567145218308  0.1265035397605078
  0.5571635272715303  0.7799444118816236  0.3050756932610766
  0.4479108524267311  0.8972080573552716  0.2160349522889209
  0.6695910022285935  0.6609176650702790  0.3990838288734638
  0.3395602830635473  0.0071484135491905  0.1287848618379503
  0.5564781207383965  0.1119840679753466  0.3110246243393983
  0.6650721212218349  0.9889802462352011  0.3972281924103681
  0.8755235234320610  0.1024011372081839  0.0368666719906628
  0.0030799692780867  0.3272941914723876  0.1255058568273017
  0.2215087194909594  0.7805095359514401  0.3088458995243324
  0.1039786410817619  0.8899597831991134  0.2154352350957587
  0.8703580361998566  0.7766630185984162  0.0380782943388514
  0.8955708079356576  0.7793324278055893  0.3069307087485325
  0.9806163250293660  0.9769564108677445  0.3949104581566550
  0.4519801305675333  0.2316726578153470  0.2144344586189617
  0.6689091041744981  0.9986782596240243  0.1237855330972258
  0.3316081720475060  0.3245625293682938  0.1275941380987751
  0.6522011765555120  0.3293435567165619  0.1267520999594504
  0.6658159515560053  0.3362779671397564  0.3942334201374391
  0.7663964409906801  0.5551705412438900  0.2140098082852305
  0.0035010093859519  0.6731940437374889  0.3939407670315447
  0.7906923807591976  0.8888340200595828  0.2152007241187665
  0.1129717357411682  0.8900597099806197  0.4371485277855696
 
  0.00000000E+00  0.00000000E+00  0.00000000E+00
  0.00000000E+00  0.00000000E+00  0.00000000E+00
  0.00000000E+00  0.00000000E+00  0.00000000E+00
  0.00000000E+00  0.00000000E+00  0.00000000E+00
  0.00000000E+00  0.00000000E+00  0.00000000E+00
  0.00000000E+00  0.00000000E+00  0.00000000E+00
  0.00000000E+00  0.00000000E+00  0.00000000E+00
  0.00000000E+00  0.00000000E+00  0.00000000E+00
  0.00000000E+00  0.00000000E+00  0.00000000E+00
  0.00000000E+00  0.00000000E+00  0.00000000E+00
  0.00000000E+00  0.00000000E+00  0.00000000E+00
  0.00000000E+00  0.00000000E+00  0.00000000E+00
  0.00000000E+00  0.00000000E+00  0.00000000E+00
  0.00000000E+00  0.00000000E+00  0.00000000E+00
  0.00000000E+00  0.00000000E+00  0.00000000E+00
  0.00000000E+00  0.00000000E+00  0.00000000E+00
  0.00000000E+00  0.00000000E+00  0.00000000E+00
  0.00000000E+00  0.00000000E+00  0.00000000E+00
  0.00000000E+00  0.00000000E+00  0.00000000E+00
  0.00000000E+00  0.00000000E+00  0.00000000E+00
  0.00000000E+00  0.00000000E+00  0.00000000E+00
  0.00000000E+00  0.00000000E+00  0.00000000E+00
  0.00000000E+00  0.00000000E+00  0.00000000E+00
  0.00000000E+00  0.00000000E+00  0.00000000E+00
  0.00000000E+00  0.00000000E+00  0.00000000E+00
  0.00000000E+00  0.00000000E+00  0.00000000E+00
  0.00000000E+00  0.00000000E+00  0.00000000E+00
  0.00000000E+00  0.00000000E+00  0.00000000E+00
  0.00000000E+00  0.00000000E+00  0.00000000E+00
  0.00000000E+00  0.00000000E+00  0.00000000E+00
  0.00000000E+00  0.00000000E+00  0.00000000E+00
  0.00000000E+00  0.00000000E+00  0.00000000E+00
  0.00000000E+00  0.00000000E+00  0.00000000E+00
  0.00000000E+00  0.00000000E+00  0.00000000E+00
  0.00000000E+00  0.00000000E+00  0.00000000E+00
  0.00000000E+00  0.00000000E+00  0.00000000E+00
  0.00000000E+00  0.00000000E+00  0.00000000E+00
  0.00000000E+00  0.00000000E+00  0.00000000E+00
  0.00000000E+00  0.00000000E+00  0.00000000E+00
  0.00000000E+00  0.00000000E+00  0.00000000E+00
  0.00000000E+00  0.00000000E+00  0.00000000E+00
  0.00000000E+00  0.00000000E+00  0.00000000E+00
  0.00000000E+00  0.00000000E+00  0.00000000E+00
  0.00000000E+00  0.00000000E+00  0.00000000E+00
  0.00000000E+00  0.00000000E+00  0.00000000E+00
  0.00000000E+00  0.00000000E+00  0.00000000E+00
