step                                    
   1.00000000000000     
     8.4506998061999994    0.0000000000000000    0.0000000000000000
    -4.2253499030999997    7.3185207118999998    0.0000000000000000
     0.0000000000000000    0.0000000000000000   24.2000007629000002
   Ir   Pd   Pt   Rh   Ru   H 
    10     9    10     9    10     1
Direct
  0.9966032419614250  0.0044962006774886  0.1267546026307221
  0.1119147108644485  0.2108044009094280  0.2162785331107759
  0.5655772037321471  0.1202934666034620  0.0403563692860135
  0.2438397076565420  0.4536646199116763  0.0410939517544949
  0.5506047840276850  0.4397497899718673  0.0401303180372258
  0.3351199246887272  0.6716668336329875  0.1252588494874278
  0.3261084288063702  0.6796451546848304  0.3956094746924937
  0.5555421546707695  0.7779415679307283  0.0396587386372147
  0.6669214605829943  0.6679151310125346  0.1280740711360727
  0.8126167241466388  0.5669879276357649  0.4699857290902802
  0.2221636181229192  0.1160043462755552  0.0350626647296266
  0.2202629079615438  0.1076985366367476  0.3081935158807503
  0.7754844574163051  0.2235800364821334  0.2172487624765026
  0.0141641586298275  0.3394489867304438  0.4040822097443848
  0.1089846378993650  0.5564253836248595  0.2166801992987463
  0.3326165677209242  0.3281458972549655  0.4041581268137281
  0.8839480515364324  0.4394362060662929  0.0352153058414996
  0.8868585131647903  0.4470936296718946  0.3117966081558725
  0.2277468106089872  0.7786353817463854  0.0349237543769654
  0.3284899660094489 -0.0059995925052446  0.4030822920981771
  0.8890092770410508  0.1067480850469125  0.3093916118028163
  0.2197326233600204  0.4438910413447348  0.3085127109519182
  0.5600266159744580  0.4429944027710940  0.3080327062985502
  0.4429885659839680  0.5501115322058133  0.2146405067932537
  0.9965998095042266  0.6642532005009930  0.1276721235790568
  0.5555256660814241  0.7845989683233843  0.3056335192612012
  0.4515728181494996  0.8964510609696059  0.2149999749603460
  0.6413768273599967  0.6636332340028707  0.3976137709864206
  0.8001803294429544  0.8706085452583275  0.4850393497627132
  0.3390763327961194  0.0076871070809685  0.1289485558688928
  0.5553973140507826  0.1122356709587122  0.3097000565673947
  0.6588495739398467  0.9979637488635112  0.4056622152702274
  0.8740074728733160  0.1017835870009264  0.0373314462014948
  0.0024511502832812  0.3261782997312532  0.1263971798613267
  0.2201460232815482  0.7785342605489742  0.3064327301854727
  0.1067216898505443  0.8924088699974617  0.2164768676356225
  0.8700817574371119  0.7766959486926668  0.0388440818859532
  0.8957101860634452  0.7784806358353786  0.3078729169675962
 -0.0134648261758555  0.9816355921788051  0.3983889524773637
  0.4531795236430841  0.2328903025348327  0.2151543295522550
  0.6715623587286973  0.0009698092547579  0.1249021078059150
  0.3297687445004687  0.3218089680387383  0.1283382567529149
  0.6532230300024080  0.3296323472561851  0.1279549557513420
  0.6399693822781144  0.3017835538457735  0.3996343774304450
  0.7647607548155301  0.5551480250846381  0.2153750022759634
  0.0226775471474263  0.6847100828987401  0.3978870682382476
  0.7890978717762606  0.8867232026130435  0.2156934323977004
  0.7833880835553244  0.2654466989775138  0.4787414346601535
  0.2006952360466418  0.0932889302285763  0.4371236835384643
 
  0.00000000E+00  0.00000000E+00  0.00000000E+00
  0.00000000E+00  0.00000000E+00  0.00000000E+00
  0.00000000E+00  0.00000000E+00  0.00000000E+00
  0.00000000E+00  0.00000000E+00  0.00000000E+00
  0.00000000E+00  0.00000000E+00  0.00000000E+00
  0.00000000E+00  0.00000000E+00  0.00000000E+00
  0.00000000E+00  0.00000000E+00  0.00000000E+00
  0.00000000E+00  0.00000000E+00  0.00000000E+00
  0.00000000E+00  0.00000000E+00  0.00000000E+00
  0.00000000E+00  0.00000000E+00  0.00000000E+00
  0.00000000E+00  0.00000000E+00  0.00000000E+00
  0.00000000E+00  0.00000000E+00  0.00000000E+00
  0.00000000E+00  0.00000000E+00  0.00000000E+00
  0.00000000E+00  0.00000000E+00  0.00000000E+00
  0.00000000E+00  0.00000000E+00  0.00000000E+00
  0.00000000E+00  0.00000000E+00  0.00000000E+00
  0.00000000E+00  0.00000000E+00  0.00000000E+00
  0.00000000E+00  0.00000000E+00  0.00000000E+00
  0.00000000E+00  0.00000000E+00  0.00000000E+00
  0.00000000E+00  0.00000000E+00  0.00000000E+00
  0.00000000E+00  0.00000000E+00  0.00000000E+00
  0.00000000E+00  0.00000000E+00  0.00000000E+00
  0.00000000E+00  0.00000000E+00  0.00000000E+00
  0.00000000E+00  0.00000000E+00  0.00000000E+00
  0.00000000E+00  0.00000000E+00  0.00000000E+00
  0.00000000E+00  0.00000000E+00  0.00000000E+00
  0.00000000E+00  0.00000000E+00  0.00000000E+00
  0.00000000E+00  0.00000000E+00  0.00000000E+00
  0.00000000E+00  0.00000000E+00  0.00000000E+00
  0.00000000E+00  0.00000000E+00  0.00000000E+00
  0.00000000E+00  0.00000000E+00  0.00000000E+00
  0.00000000E+00  0.00000000E+00  0.00000000E+00
  0.00000000E+00  0.00000000E+00  0.00000000E+00
  0.00000000E+00  0.00000000E+00  0.00000000E+00
  0.00000000E+00  0.00000000E+00  0.00000000E+00
  0.00000000E+00  0.00000000E+00  0.00000000E+00
  0.00000000E+00  0.00000000E+00  0.00000000E+00
  0.00000000E+00  0.00000000E+00  0.00000000E+00
  0.00000000E+00  0.00000000E+00  0.00000000E+00
  0.00000000E+00  0.00000000E+00  0.00000000E+00
  0.00000000E+00  0.00000000E+00  0.00000000E+00
  0.00000000E+00  0.00000000E+00  0.00000000E+00
  0.00000000E+00  0.00000000E+00  0.00000000E+00
  0.00000000E+00  0.00000000E+00  0.00000000E+00
  0.00000000E+00  0.00000000E+00  0.00000000E+00
  0.00000000E+00  0.00000000E+00  0.00000000E+00
  0.00000000E+00  0.00000000E+00  0.00000000E+00
  0.00000000E+00  0.00000000E+00  0.00000000E+00
  0.00000000E+00  0.00000000E+00  0.00000000E+00
