hRuPd2Pt1                               
   1.00000000000000     
     8.4506998061999994    0.0000000000000000    0.0000000000000000
    -4.2253499030999997    7.3185207118999998    0.0000000000000000
     0.0000000000000000    0.0000000000000000   24.2000007629000002
   Ir   Pd   Pt   Rh   Ru   H 
     9     9     9     9     9     1
Direct
  0.9964391597074951  0.0045592241161884  0.1259839223353706
  0.1109742036287919  0.2099865834314746  0.2153807566463266
  0.5648542741634343  0.1199581242231640  0.0396815617902839
  0.2429597303436173  0.4527692496344431  0.0404217820283632
  0.5502493718827436  0.4396288415155380  0.0392776639202815
  0.3374323214069549  0.6709948058509237  0.1252277631075494
  0.3256129058628751  0.6749408251206035  0.3950398721751914
  0.5556395105678598  0.7771105137437080  0.0385982607182014
  0.6655240977476875  0.6682302446886939  0.1275676311766553
  0.2224140268897151  0.1154603377269223  0.0344883701908903
  0.2227004111943246  0.1091318660045208  0.3065954696921918
  0.7752866622281200  0.2214423881361297  0.2156502229055804
  0.9955354113861623  0.3363084370425741  0.4030230341031331
  0.1116474825088480  0.5581402833437112  0.2158008968366907
  0.3301080289536468  0.3309063024355557  0.4019571389054657
  0.8838423570367646  0.4398205519129845  0.0341588330006194
  0.8889176642863312  0.4459787393455418  0.3074951567948274
  0.2286061318218610  0.7783017298231234  0.0343875137837034
  0.3296012215662038 -0.0025565166967871  0.4003763100258684
  0.8896321199946436  0.1078734925369185  0.3088924155691867
  0.2187625042223518  0.4420513055038012  0.3079329850680570
  0.5608078812381296  0.4408828648760561  0.3062644795099166
  0.4456317660719005  0.5498542645816387  0.2153709548201462
  0.9967423205828864  0.6635505931703032  0.1265098221333461
  0.5575084937638359  0.7796638950239011  0.3057246974242915
  0.4487746077932804  0.8961261843244313  0.2158222530903398
  0.6694501602978450  0.6674495098189558  0.4003997681426557
  0.3400338533151492  0.0072693280537472  0.1288609230093724
  0.5533849485753661  0.1115924324683888  0.3097157459507550
  0.6593395994227296  0.9957597103297643  0.3973368460768193
  0.8751990079700370  0.1021516639845717  0.0366691874470645
  0.0029999523035377  0.3271504067029348  0.1253749030648411
  0.2199693304480098  0.7789444317539101  0.3080674938378516
  0.1043156047547073  0.8904447554803512  0.2150719455917667
  0.8701968380548941  0.7764230500180564  0.0381327599616156
  0.8941188776139731  0.7786836508697937  0.3062851217546373
  0.9928156240844997  0.9741431823606576  0.3945474385137688
  0.4533920634411642  0.2314270884043051  0.2145573832941683
  0.6700777103688784 -0.0003448006380556  0.1235955744517239
  0.3316397418441360  0.3242069161492098  0.1276065373385014
  0.6528761407139138  0.3289326375432031  0.1267928821105811
  0.6658286186313480  0.3245593077751558  0.3952849174853599
  0.7673028818948071  0.5553257862159118  0.2140253594986715
  0.0074968132732673  0.6796004521929933  0.3932889782709982
  0.7903659696817453  0.8887907103251818  0.2152267534197606
  0.5747212724595103  0.4502342347748918  0.4353497220266087
 
  0.00000000E+00  0.00000000E+00  0.00000000E+00
  0.00000000E+00  0.00000000E+00  0.00000000E+00
  0.00000000E+00  0.00000000E+00  0.00000000E+00
  0.00000000E+00  0.00000000E+00  0.00000000E+00
  0.00000000E+00  0.00000000E+00  0.00000000E+00
  0.00000000E+00  0.00000000E+00  0.00000000E+00
  0.00000000E+00  0.00000000E+00  0.00000000E+00
  0.00000000E+00  0.00000000E+00  0.00000000E+00
  0.00000000E+00  0.00000000E+00  0.00000000E+00
  0.00000000E+00  0.00000000E+00  0.00000000E+00
  0.00000000E+00  0.00000000E+00  0.00000000E+00
  0.00000000E+00  0.00000000E+00  0.00000000E+00
  0.00000000E+00  0.00000000E+00  0.00000000E+00
  0.00000000E+00  0.00000000E+00  0.00000000E+00
  0.00000000E+00  0.00000000E+00  0.00000000E+00
  0.00000000E+00  0.00000000E+00  0.00000000E+00
  0.00000000E+00  0.00000000E+00  0.00000000E+00
  0.00000000E+00  0.00000000E+00  0.00000000E+00
  0.00000000E+00  0.00000000E+00  0.00000000E+00
  0.00000000E+00  0.00000000E+00  0.00000000E+00
  0.00000000E+00  0.00000000E+00  0.00000000E+00
  0.00000000E+00  0.00000000E+00  0.00000000E+00
  0.00000000E+00  0.00000000E+00  0.00000000E+00
  0.00000000E+00  0.00000000E+00  0.00000000E+00
  0.00000000E+00  0.00000000E+00  0.00000000E+00
  0.00000000E+00  0.00000000E+00  0.00000000E+00
  0.00000000E+00  0.00000000E+00  0.00000000E+00
  0.00000000E+00  0.00000000E+00  0.00000000E+00
  0.00000000E+00  0.00000000E+00  0.00000000E+00
  0.00000000E+00  0.00000000E+00  0.00000000E+00
  0.00000000E+00  0.00000000E+00  0.00000000E+00
  0.00000000E+00  0.00000000E+00  0.00000000E+00
  0.00000000E+00  0.00000000E+00  0.00000000E+00
  0.00000000E+00  0.00000000E+00  0.00000000E+00
  0.00000000E+00  0.00000000E+00  0.00000000E+00
  0.00000000E+00  0.00000000E+00  0.00000000E+00
  0.00000000E+00  0.00000000E+00  0.00000000E+00
  0.00000000E+00  0.00000000E+00  0.00000000E+00
  0.00000000E+00  0.00000000E+00  0.00000000E+00
  0.00000000E+00  0.00000000E+00  0.00000000E+00
  0.00000000E+00  0.00000000E+00  0.00000000E+00
  0.00000000E+00  0.00000000E+00  0.00000000E+00
  0.00000000E+00  0.00000000E+00  0.00000000E+00
  0.00000000E+00  0.00000000E+00  0.00000000E+00
  0.00000000E+00  0.00000000E+00  0.00000000E+00
  0.00000000E+00  0.00000000E+00  0.00000000E+00
