total                                   
   1.00000000000000     
     8.4506998061999994    0.0000000000000000    0.0000000000000000
    -4.2253499030999997    7.3185207118999998    0.0000000000000000
     0.0000000000000000    0.0000000000000000   24.2000007629000002
   Ir   Pd   Pt   Rh   Ru   H 
     9     9     9     9     9     1
Direct
  0.9819596233650896  0.0020954833386934  0.0065021380898478
  0.4732549284833686  0.0051353584380429  0.0083532138813720
  0.0698791199540771  0.1927620836303422  0.3184172256836381
  0.6080126788991874  0.7607053317835987  0.2911776409868981
  0.4243540500240872  0.3938458881786738  0.3273957781800307
  0.8367312213571521  0.6772921460778040  0.0432969345937770
  0.2491339993217091  0.0452073395553048  0.3601848547307436
  0.4679883885470519  0.4735630387498420  0.2147600566913917
  0.8976956444625712  0.8426561772764031  0.3532657376008775
  0.6403732116101253  0.8296118769757711  0.1749740597949064
  0.9455174030160354  0.9648792276861765  0.1173445442609863
  0.5021277013888908  0.5435129946893293  0.0891694733652798
  0.1424746487809155  0.8376762102952695  0.1736611231968836
  0.7893792432916632  0.1250559906372224  0.2519883614205580
  0.3387160126000966  0.2288962967430316  0.0088880518084595
  0.6371331011243667  0.3221450008918083  0.0716958941794227
  0.1357835161573731  0.3213041794859555  0.0718039510699446
  0.2874116045876657  0.6069578852917301  0.1566333324951559
  0.9281841240947587  0.8998486352865986  0.2372696512146431
  0.1111447983592230  0.2591095517966155  0.1948704321532209
  0.9621199310332972  0.4848423540601380  0.2164906361472635
  0.0738293526442461  0.6945698268687569  0.3965461108293380
  0.6018663109661483  0.2617775233039142  0.1961416494040811
  0.2478771242677907  0.5479895209379072  0.2765082484488534
  0.2200909015223974  0.4779629115220197  0.3911818640055433
  0.4253636922799294  0.9059268331589091  0.2378613860219722
  0.4684521602643660  0.9651571870892373  0.1175019399641659
  0.1741539968508571  0.8973317786093917  0.0616114626581710
  0.9885651888946896  0.5385012599083704  0.1065350712529114
  0.6209260258976804  0.7903160904845427  0.0084376165707399
  0.2875045150551878  0.6737960875099382  0.0405096239828571
  0.7122009696213446  0.4800231886859808  0.3864023641551018
  0.3992537372863754  0.8440902045494274  0.3534583962004224
  0.9460455163299867  0.4446658904721776  0.0083211588044681
  0.8259427660807894  0.2017858628055870  0.1379429251850826
  0.5769040100324406  0.1976838860532436  0.3172450642683879
  0.7502414044468351  0.5489401539318010  0.2794381110249702
  0.7846727177231043  0.1156991713125423  0.0390597095911350
  0.5818241356651304  0.7033430775052110  0.3945442707301363
  0.2867681086691969  0.1246198830796632  0.2494223261120201
  0.1055721424058890  0.7662043132636814  0.2902114900824641
  0.9224471129380822  0.3959246790918721  0.3315571875404735
  0.3223249494804093  0.1882312180955699  0.1340531288042037
  0.7728169236734390  0.6113707061787793  0.1604626796757915
  0.7488813779367441  0.0430931296598180  0.3627795436923463
  0.6715198746082297  0.9243525760533126  0.4269336404490474
 
  0.00000000E+00  0.00000000E+00  0.00000000E+00
  0.00000000E+00  0.00000000E+00  0.00000000E+00
  0.00000000E+00  0.00000000E+00  0.00000000E+00
  0.00000000E+00  0.00000000E+00  0.00000000E+00
  0.00000000E+00  0.00000000E+00  0.00000000E+00
  0.00000000E+00  0.00000000E+00  0.00000000E+00
  0.00000000E+00  0.00000000E+00  0.00000000E+00
  0.00000000E+00  0.00000000E+00  0.00000000E+00
  0.00000000E+00  0.00000000E+00  0.00000000E+00
  0.00000000E+00  0.00000000E+00  0.00000000E+00
  0.00000000E+00  0.00000000E+00  0.00000000E+00
  0.00000000E+00  0.00000000E+00  0.00000000E+00
  0.00000000E+00  0.00000000E+00  0.00000000E+00
  0.00000000E+00  0.00000000E+00  0.00000000E+00
  0.00000000E+00  0.00000000E+00  0.00000000E+00
  0.00000000E+00  0.00000000E+00  0.00000000E+00
  0.00000000E+00  0.00000000E+00  0.00000000E+00
  0.00000000E+00  0.00000000E+00  0.00000000E+00
  0.00000000E+00  0.00000000E+00  0.00000000E+00
  0.00000000E+00  0.00000000E+00  0.00000000E+00
  0.00000000E+00  0.00000000E+00  0.00000000E+00
  0.00000000E+00  0.00000000E+00  0.00000000E+00
  0.00000000E+00  0.00000000E+00  0.00000000E+00
  0.00000000E+00  0.00000000E+00  0.00000000E+00
  0.00000000E+00  0.00000000E+00  0.00000000E+00
  0.00000000E+00  0.00000000E+00  0.00000000E+00
  0.00000000E+00  0.00000000E+00  0.00000000E+00
  0.00000000E+00  0.00000000E+00  0.00000000E+00
  0.00000000E+00  0.00000000E+00  0.00000000E+00
  0.00000000E+00  0.00000000E+00  0.00000000E+00
  0.00000000E+00  0.00000000E+00  0.00000000E+00
  0.00000000E+00  0.00000000E+00  0.00000000E+00
  0.00000000E+00  0.00000000E+00  0.00000000E+00
  0.00000000E+00  0.00000000E+00  0.00000000E+00
  0.00000000E+00  0.00000000E+00  0.00000000E+00
  0.00000000E+00  0.00000000E+00  0.00000000E+00
  0.00000000E+00  0.00000000E+00  0.00000000E+00
  0.00000000E+00  0.00000000E+00  0.00000000E+00
  0.00000000E+00  0.00000000E+00  0.00000000E+00
  0.00000000E+00  0.00000000E+00  0.00000000E+00
  0.00000000E+00  0.00000000E+00  0.00000000E+00
  0.00000000E+00  0.00000000E+00  0.00000000E+00
  0.00000000E+00  0.00000000E+00  0.00000000E+00
  0.00000000E+00  0.00000000E+00  0.00000000E+00
  0.00000000E+00  0.00000000E+00  0.00000000E+00
  0.00000000E+00  0.00000000E+00  0.00000000E+00
