Amorphous+H                             
   1.00000000000000     
     8.4506998061999994    0.0000000000000000    0.0000000000000000
    -4.2253499030999997    7.3185207118999998    0.0000000000000000
     0.0000000000000000    0.0000000000000000   24.2000007629000002
   Ir   Pd   Pt   Rh   Ru   H 
     9     9     9     9     9     1
Direct
  0.6981348061036241  0.6513312212643692  0.0334717035546586
  0.9081606089294151  0.1200636267868258  0.3305283342393205
  0.4794605777017351  0.5789414074392923  0.4104775734862344
  0.5914800827283833  0.7934544384951561  0.3264855506861066
  0.0248463180765864  0.3565540496822327  0.2371596835434934
  0.2100077303960902  0.1738739334168334  0.2690526007328203
  0.4099946958933123  0.6078590695568706  0.0934613893666753
  0.3088415352119080  0.7540031089424415  0.3864074270096393
  0.0540625731143383  0.6390977323692556  0.3065994721783022
  0.8928588078891431  0.4719246554323350  0.0466264877736107
  0.7106094778740666  0.3028845474203732  0.2954094069324720
  0.8818197123697040  0.8232987225813923  0.2706444351476963
  0.7535153451011862  0.9460683093136795  0.0899993453029649
  0.7906265262881372  0.2422615842616746  0.1459638282777073
  0.3474210147978130  0.6761415604544440  0.2394285834663938
  0.6854725939837244  0.0127396458928773  0.2376805823003776
  0.5645364812771729  0.1265186561096371  0.0478209344050314
  0.1669621828391423  0.8656263587371962  0.2083897421719223
  0.8341485652528544  0.5296538059203513  0.2084834170557735
  0.6457335287222791  0.7117314514821202  0.1792083414747481
  0.2206966179624733  0.4391406870354382  0.3341564423108226
  0.8867256708269982  0.1748566690748775  0.0011329679640041
  0.2270100636995861  0.7956560014231934  0.0542497281442178
  0.4568469921848683  0.9086381933569959  0.1472033605375239
  0.9889419259476493  0.0570030503354371  0.1784503310835348
  0.3861435712022738  0.3257399083023640  0.0300529019538341
  0.0470010667343533  0.9792337464185958  0.0301003416380152
  0.6083126906870490  0.4247285215418459  0.1198382192792207
  0.0968755971082279  0.2845873014261143  0.0898902251127931
  0.4211873162146013  0.2685962291375852  0.3588442696128309
  0.5255863832849029  0.4888291260524791  0.2684421456492065
  0.1191220728801904  0.5690123318620584  0.1456041754328605
  0.2791815291420977  0.0919194441251362  0.1177719845121981
  0.3753489154169353  0.9779699770062891  0.2999557751173256
  0.9094445901443018  0.3877821723636959  0.3864178596845390
  0.6076683722093450  0.0709046215896530  0.3822015112160822
  0.3087305629310558  0.3724268245050830  0.1774808135350158
  0.2180137442671941  0.5089189397067676  0.0055428101718192
  0.8055399213292768  0.8793588131272746  0.4088045244185957
  0.7394819675897677  0.5847028993661896  0.3580629446843514
  0.0164308856414018  0.7106792636021801  0.4143753118332084
  0.9333809074162479  0.7446928776948714  0.1151604602417311
  0.5178075028820374  0.7916660982182940  0.0025813788759595
  0.4789031907265314  0.1973229482095891  0.2070674920160488
  0.1025831382913957  0.9820530936208024  0.3600387337612833
  0.6259015357286358  0.7159223623378151  0.4614243691070219
 
  0.00000000E+00  0.00000000E+00  0.00000000E+00
  0.00000000E+00  0.00000000E+00  0.00000000E+00
  0.00000000E+00  0.00000000E+00  0.00000000E+00
  0.00000000E+00  0.00000000E+00  0.00000000E+00
  0.00000000E+00  0.00000000E+00  0.00000000E+00
  0.00000000E+00  0.00000000E+00  0.00000000E+00
  0.00000000E+00  0.00000000E+00  0.00000000E+00
  0.00000000E+00  0.00000000E+00  0.00000000E+00
  0.00000000E+00  0.00000000E+00  0.00000000E+00
  0.00000000E+00  0.00000000E+00  0.00000000E+00
  0.00000000E+00  0.00000000E+00  0.00000000E+00
  0.00000000E+00  0.00000000E+00  0.00000000E+00
  0.00000000E+00  0.00000000E+00  0.00000000E+00
  0.00000000E+00  0.00000000E+00  0.00000000E+00
  0.00000000E+00  0.00000000E+00  0.00000000E+00
  0.00000000E+00  0.00000000E+00  0.00000000E+00
  0.00000000E+00  0.00000000E+00  0.00000000E+00
  0.00000000E+00  0.00000000E+00  0.00000000E+00
  0.00000000E+00  0.00000000E+00  0.00000000E+00
  0.00000000E+00  0.00000000E+00  0.00000000E+00
  0.00000000E+00  0.00000000E+00  0.00000000E+00
  0.00000000E+00  0.00000000E+00  0.00000000E+00
  0.00000000E+00  0.00000000E+00  0.00000000E+00
  0.00000000E+00  0.00000000E+00  0.00000000E+00
  0.00000000E+00  0.00000000E+00  0.00000000E+00
  0.00000000E+00  0.00000000E+00  0.00000000E+00
  0.00000000E+00  0.00000000E+00  0.00000000E+00
  0.00000000E+00  0.00000000E+00  0.00000000E+00
  0.00000000E+00  0.00000000E+00  0.00000000E+00
  0.00000000E+00  0.00000000E+00  0.00000000E+00
  0.00000000E+00  0.00000000E+00  0.00000000E+00
  0.00000000E+00  0.00000000E+00  0.00000000E+00
  0.00000000E+00  0.00000000E+00  0.00000000E+00
  0.00000000E+00  0.00000000E+00  0.00000000E+00
  0.00000000E+00  0.00000000E+00  0.00000000E+00
  0.00000000E+00  0.00000000E+00  0.00000000E+00
  0.00000000E+00  0.00000000E+00  0.00000000E+00
  0.00000000E+00  0.00000000E+00  0.00000000E+00
  0.00000000E+00  0.00000000E+00  0.00000000E+00
  0.00000000E+00  0.00000000E+00  0.00000000E+00
  0.00000000E+00  0.00000000E+00  0.00000000E+00
  0.00000000E+00  0.00000000E+00  0.00000000E+00
  0.00000000E+00  0.00000000E+00  0.00000000E+00
  0.00000000E+00  0.00000000E+00  0.00000000E+00
  0.00000000E+00  0.00000000E+00  0.00000000E+00
  0.00000000E+00  0.00000000E+00  0.00000000E+00
