step                                    
   1.00000000000000     
     8.4506998061999994    0.0000000000000000    0.0000000000000000
    -4.2253499030999997    7.3185207118999998    0.0000000000000000
     0.0000000000000000    0.0000000000000000   24.2000007629000002
   Ir   Pd   Pt   Rh   Ru   H 
    10     9    10    10     9     1
Direct
  0.9955256016559538  0.0043500569554761  0.1271092216597529
  0.1128834670692598  0.2120705793724901  0.2159375798952758
  0.5649041220761175  0.1212307462823966  0.0402359369822702
  0.2422094853273449  0.4529711284593302  0.0408866774681887
  0.5496566475827412  0.4399944118687936  0.0400645368348764
  0.3354310857852174  0.6713697026697382  0.1254008761374085
  0.3234716202594020  0.6755667909506828  0.3969729213948143
  0.5551626419196588  0.7770191358846180  0.0394882950606150
  0.6665501817062750  0.6696519201566348  0.1282291312019810
  0.8122734750675449  0.9197059239291748  0.4718558361507368
  0.2203567659194810  0.1158575468847602  0.0351512121996401
  0.2222698666544712  0.1097593723388212  0.3063030637577321
  0.7754914548948134  0.2222915192877361  0.2168461365990461
  0.0020295486929794  0.3388594973038193  0.4034883527657188
  0.1090721419936111  0.5573513808584440  0.2167834784638424
  0.3232169460882237  0.3222547088952736  0.4022966906512935
  0.8837179708775231  0.4404020882754348  0.0347995449536458
  0.8846784626816964  0.4468673216861612  0.3103923566810854
  0.2275059083822570  0.7789958551283999  0.0349375578435426
  0.3248691627960886  0.0008713260375263  0.4013647100892426
  0.8876601090589448  0.1055303119018983  0.3110232653603278
  0.2160973933905805  0.4435743154711069  0.3084504854479151
  0.5582257220421321  0.4392139437542925  0.3073241980481047
  0.4434988736706225  0.5496701004716840  0.2153080562673687
  0.9963465736889990  0.6639287496556331  0.1274880138728384
  0.5547360328863069  0.7824771287744484  0.3067747962821292
  0.4509309246765099  0.8960398222501011  0.2158793770538726
  0.6367805442198398  0.6514832685139309  0.3985816480690407
  0.7992096926400655  0.5700989023185528  0.4776018330690644
  0.3398258141179278  0.0075392449739052  0.1289444536278546
  0.5563120820524138  0.1139604759471076  0.3091826611859479
  0.6352479240025621  0.9942266148116092  0.4003379599416041
  0.8734703219075056  0.1021858864392290  0.0372836853729625
  0.0014755664592036  0.3268968496025933  0.1261498074181834
  0.2153169584491560  0.7770612795324393  0.3077601655690595
  0.1067887485110859  0.8928242772212678  0.2158738698972117
  0.8700515746866393  0.7768667223869635  0.0388316663298800
  0.8941250152181017  0.7802936364453722  0.3085539101458485
  0.7679763346193367  0.2094769576377994  0.4815772080018336
  0.0095735203707487  0.9840624572539413  0.3986764515958642
  0.4530549893101187  0.2329014733260330  0.2141828012516897
  0.6695713781810040  0.0000800193660192  0.1243558261787587
  0.3299252324857893  0.3230085828308495  0.1279092776568718
  0.6540904804562822  0.3301885744603141  0.1277764501137241
  0.6436413529139913  0.3131257201532673  0.4013897850124556
  0.7644075905119463  0.5551076289343282  0.2150779536373608
  0.0149535719794781  0.6877316402323411  0.3974498410246622
  0.7916015377916680  0.8883034930948760  0.2159823885796288
  0.1780573572703635  0.5646405100123777  0.4477680501972240
 
  0.00000000E+00  0.00000000E+00  0.00000000E+00
  0.00000000E+00  0.00000000E+00  0.00000000E+00
  0.00000000E+00  0.00000000E+00  0.00000000E+00
  0.00000000E+00  0.00000000E+00  0.00000000E+00
  0.00000000E+00  0.00000000E+00  0.00000000E+00
  0.00000000E+00  0.00000000E+00  0.00000000E+00
  0.00000000E+00  0.00000000E+00  0.00000000E+00
  0.00000000E+00  0.00000000E+00  0.00000000E+00
  0.00000000E+00  0.00000000E+00  0.00000000E+00
  0.00000000E+00  0.00000000E+00  0.00000000E+00
  0.00000000E+00  0.00000000E+00  0.00000000E+00
  0.00000000E+00  0.00000000E+00  0.00000000E+00
  0.00000000E+00  0.00000000E+00  0.00000000E+00
  0.00000000E+00  0.00000000E+00  0.00000000E+00
  0.00000000E+00  0.00000000E+00  0.00000000E+00
  0.00000000E+00  0.00000000E+00  0.00000000E+00
  0.00000000E+00  0.00000000E+00  0.00000000E+00
  0.00000000E+00  0.00000000E+00  0.00000000E+00
  0.00000000E+00  0.00000000E+00  0.00000000E+00
  0.00000000E+00  0.00000000E+00  0.00000000E+00
  0.00000000E+00  0.00000000E+00  0.00000000E+00
  0.00000000E+00  0.00000000E+00  0.00000000E+00
  0.00000000E+00  0.00000000E+00  0.00000000E+00
  0.00000000E+00  0.00000000E+00  0.00000000E+00
  0.00000000E+00  0.00000000E+00  0.00000000E+00
  0.00000000E+00  0.00000000E+00  0.00000000E+00
  0.00000000E+00  0.00000000E+00  0.00000000E+00
  0.00000000E+00  0.00000000E+00  0.00000000E+00
  0.00000000E+00  0.00000000E+00  0.00000000E+00
  0.00000000E+00  0.00000000E+00  0.00000000E+00
  0.00000000E+00  0.00000000E+00  0.00000000E+00
  0.00000000E+00  0.00000000E+00  0.00000000E+00
  0.00000000E+00  0.00000000E+00  0.00000000E+00
  0.00000000E+00  0.00000000E+00  0.00000000E+00
  0.00000000E+00  0.00000000E+00  0.00000000E+00
  0.00000000E+00  0.00000000E+00  0.00000000E+00
  0.00000000E+00  0.00000000E+00  0.00000000E+00
  0.00000000E+00  0.00000000E+00  0.00000000E+00
  0.00000000E+00  0.00000000E+00  0.00000000E+00
  0.00000000E+00  0.00000000E+00  0.00000000E+00
  0.00000000E+00  0.00000000E+00  0.00000000E+00
  0.00000000E+00  0.00000000E+00  0.00000000E+00
  0.00000000E+00  0.00000000E+00  0.00000000E+00
  0.00000000E+00  0.00000000E+00  0.00000000E+00
  0.00000000E+00  0.00000000E+00  0.00000000E+00
  0.00000000E+00  0.00000000E+00  0.00000000E+00
  0.00000000E+00  0.00000000E+00  0.00000000E+00
  0.00000000E+00  0.00000000E+00  0.00000000E+00
  0.00000000E+00  0.00000000E+00  0.00000000E+00
