step                                    
   1.00000000000000     
     8.4506998061999994    0.0000000000000000    0.0000000000000000
    -4.2253499030999997    7.3185207118999998    0.0000000000000000
     0.0000000000000000    0.0000000000000000   24.2000007629000002
   Ir   Pd   Pt   Rh   Ru   H 
    10     9     9    11     9     1
Direct
  0.9961539922493630  0.0051913508678758  0.1270758611074772
  0.1115119586901948  0.2121747753884203  0.2161115035754008
  0.5651111244189015  0.1212841682426951  0.0403727305265410
  0.2426102046508523  0.4539487916606215  0.0409341440859756
  0.5498068917642531  0.4406957963578563  0.0401294585602833
  0.3345928137429475  0.6718807032437072  0.1252538510530252
  0.3245754406073564  0.6798137938323007  0.3979264361923682
  0.5547426431552248  0.7777908149707344  0.0396348670614284
  0.6656963596634150  0.6686336151847670  0.1284381689774048
  0.8058032383688821  0.5717872313869347  0.4679883829627192
  0.2202937578912479  0.1162824417008234  0.0350502926567552
  0.2223884478379718  0.1095709644862717  0.3064990806241507
  0.7759281137175923  0.2241212482933161  0.2170311956880351
 -0.0009983238053080  0.3261806391967408  0.4059334650605085
  0.1084241503733409  0.5570573818523883  0.2168444952129742
  0.3236053914030041  0.3200356772179928  0.4021483074657839
  0.8835841553097913  0.4402514670496504  0.0348989879928019
  0.8854975523293571  0.4466321940392323  0.3122114343451791
  0.2270835835818838  0.7790738661777287  0.0349204677496475
  0.3242728836946903 -0.0023571476613127  0.4015724535487905
  0.8880869448289522  0.1063289995908589  0.3103630549913151
  0.2159105788483353  0.4434371681571214  0.3091492034619206
  0.5590382752916395  0.4424725999045839  0.3078301896221101
  0.4418056596220274  0.5502600712791259  0.2152434314454373
  0.9956953049258473  0.6640867595654798  0.1276487751994764
  0.5539045955032380  0.7841029090423672  0.3056776933298310
  0.4506857446821023  0.8978264837952845  0.2150314802710191
  0.6298781501619025  0.6597279283543356  0.3982888290381451
  0.3383904815440397  0.0085051156556269  0.1287766244986308
  0.5560566133697001  0.1129275319121624  0.3090210841892924
  0.6467263020116212  0.9970530044607884  0.4035592346443473
  0.8728913857177886  0.1017291898014309  0.0372857919473257
  0.0016837230501581  0.3272267695047236  0.1261347338918470
  0.2179527236405467  0.7767639232519096  0.3066437228885934
  0.1057930574182647  0.8930052465171031  0.2161234988622374
  0.8693613021525662  0.7773231535520201  0.0389982508920995
  0.8940445036463734  0.7798981857907284  0.3089963012424641
  0.8208618795728878  0.8850035513510630  0.4762485957909102
  0.7630930514438464  0.2589558124547469  0.4834700202980877
  0.0049095553775507  0.9853043106627490  0.3978419206413846
  0.4540895399238929  0.2331181232397761  0.2144062118074972
  0.6701516258465754  0.0006561102795244  0.1246561252266061
  0.3294320891283734  0.3231873675786644  0.1282212957686502
  0.6537197810832927  0.3308829073148047  0.1276585651716597
  0.6342914489664122  0.3020723687719201  0.3991782545927127
  0.7643122103091202  0.5562285055346232  0.2156262346428236
  0.0205590894172441  0.6898694807959561  0.3973341575761836
  0.7903813833854095  0.8892810537281907  0.2155607266457009
  0.1798383944853127  0.5426551956635807  0.4460904099744376
 
  0.00000000E+00  0.00000000E+00  0.00000000E+00
  0.00000000E+00  0.00000000E+00  0.00000000E+00
  0.00000000E+00  0.00000000E+00  0.00000000E+00
  0.00000000E+00  0.00000000E+00  0.00000000E+00
  0.00000000E+00  0.00000000E+00  0.00000000E+00
  0.00000000E+00  0.00000000E+00  0.00000000E+00
  0.00000000E+00  0.00000000E+00  0.00000000E+00
  0.00000000E+00  0.00000000E+00  0.00000000E+00
  0.00000000E+00  0.00000000E+00  0.00000000E+00
  0.00000000E+00  0.00000000E+00  0.00000000E+00
  0.00000000E+00  0.00000000E+00  0.00000000E+00
  0.00000000E+00  0.00000000E+00  0.00000000E+00
  0.00000000E+00  0.00000000E+00  0.00000000E+00
  0.00000000E+00  0.00000000E+00  0.00000000E+00
  0.00000000E+00  0.00000000E+00  0.00000000E+00
  0.00000000E+00  0.00000000E+00  0.00000000E+00
  0.00000000E+00  0.00000000E+00  0.00000000E+00
  0.00000000E+00  0.00000000E+00  0.00000000E+00
  0.00000000E+00  0.00000000E+00  0.00000000E+00
  0.00000000E+00  0.00000000E+00  0.00000000E+00
  0.00000000E+00  0.00000000E+00  0.00000000E+00
  0.00000000E+00  0.00000000E+00  0.00000000E+00
  0.00000000E+00  0.00000000E+00  0.00000000E+00
  0.00000000E+00  0.00000000E+00  0.00000000E+00
  0.00000000E+00  0.00000000E+00  0.00000000E+00
  0.00000000E+00  0.00000000E+00  0.00000000E+00
  0.00000000E+00  0.00000000E+00  0.00000000E+00
  0.00000000E+00  0.00000000E+00  0.00000000E+00
  0.00000000E+00  0.00000000E+00  0.00000000E+00
  0.00000000E+00  0.00000000E+00  0.00000000E+00
  0.00000000E+00  0.00000000E+00  0.00000000E+00
  0.00000000E+00  0.00000000E+00  0.00000000E+00
  0.00000000E+00  0.00000000E+00  0.00000000E+00
  0.00000000E+00  0.00000000E+00  0.00000000E+00
  0.00000000E+00  0.00000000E+00  0.00000000E+00
  0.00000000E+00  0.00000000E+00  0.00000000E+00
  0.00000000E+00  0.00000000E+00  0.00000000E+00
  0.00000000E+00  0.00000000E+00  0.00000000E+00
  0.00000000E+00  0.00000000E+00  0.00000000E+00
  0.00000000E+00  0.00000000E+00  0.00000000E+00
  0.00000000E+00  0.00000000E+00  0.00000000E+00
  0.00000000E+00  0.00000000E+00  0.00000000E+00
  0.00000000E+00  0.00000000E+00  0.00000000E+00
  0.00000000E+00  0.00000000E+00  0.00000000E+00
  0.00000000E+00  0.00000000E+00  0.00000000E+00
  0.00000000E+00  0.00000000E+00  0.00000000E+00
  0.00000000E+00  0.00000000E+00  0.00000000E+00
  0.00000000E+00  0.00000000E+00  0.00000000E+00
  0.00000000E+00  0.00000000E+00  0.00000000E+00
