step                                    
   1.00000000000000     
     8.4506998061999994    0.0000000000000000    0.0000000000000000
    -4.2253499030999997    7.3185207118999998    0.0000000000000000
     0.0000000000000000    0.0000000000000000   24.2000007629000002
   Ir   Pd   Pt   Rh   Ru   H 
     9    11     9     9    10     1
Direct
  0.5561405468220665  0.1080265591959350  0.0385325762347582
  0.5464905928534940  0.1150759902388594  0.3078423133693994
  0.7737751303583172  0.2291537961844973  0.2167633748838697
  0.0309577322276707  0.3490798806273595  0.3976829663161216
  0.3249835196483959  0.3293418510589047  0.1254806150931418
  0.8727330253195106  0.4376332925460735  0.3074380080364844
  0.9976337448326196  0.6578578138799140  0.1247930465752563
  0.3304337247508775  0.6532980688032797  0.3911626767213004
  0.8893312935782176  0.7775163701328502  0.3057897068965180
  0.0044951827732113  0.0087272381676978  0.3987581986687698
  0.2251636170688141  0.1139107379437501  0.0308179639982786
  0.3318127044491175  0.0037639589603367  0.4003937049261675
  0.6386398877699320 -0.0193083486074973  0.3952093874404130
  0.2247831501679541  0.4413022340949720  0.3026390306099350
  0.8889997204081976  0.4417194181961096  0.0321070842291894
  0.1080448423819496  0.8847375395193736  0.2151639724376162
  0.4501569357795116  0.8904509784627154  0.2162188693615608
  0.7766424403979535  0.8904056496827094  0.2156534678347816
  0.7756087786153586  0.9176910097634521  0.4836099286219857
  0.7890329886481627  0.5553847346089327  0.4839851344485230
  0.0030915984274117  0.0046561469945521  0.1250545798241769
  0.8864885746452529  0.1104726309681461  0.3062741929192311
  0.1010457524399743  0.5461358857778824  0.2159637713096753
  0.0078179712488091  0.6640277693264923  0.3965795128474103
  0.3322167881376965  0.6663596183051070  0.1274383426000243
  0.5553008263847925  0.7811071617495118  0.0350818020027547
  0.6676032417798954  0.6630348950742765  0.1270395476849047
  0.6575623987275515  0.6614861350237732  0.3976510275257669
  0.8871432784600117  0.7717644203937963  0.0351977416356037
  0.3369403546571073  0.0041724000778017  0.1252199046832735
  0.4435262871173938  0.2322166951668385  0.2164931711621688
  0.8825153141683195  0.1173511019276346  0.0368973410685065
  0.3408156309234703  0.3410826343350875  0.3947032286760695
  0.5439702580258678  0.4350194219244553  0.0370538017720522
  0.5602419782878048  0.4489613666768843  0.3053682862393708
  0.6686118941574157  0.3290655613816153  0.1270093040042437
  0.2267809549420457  0.7744028940372589  0.0373162027032421
  0.2254400049557703  0.7877132710690032  0.3079598410565209
  0.2169308966335959  0.0978715916991890  0.3053512816889324
  0.1259194896676866  0.2327489360746414  0.2153461985263336
  0.6779821828153584  0.0215753410060790  0.1245322239490182
  0.9962654638575521  0.3224598430145806  0.1254288619296987
  0.2261206634759870  0.4454533829132339  0.0405965519829364
  0.4495398697025427  0.5456633958897098  0.2146150534467721
  0.6457548287623204  0.3317992842060714  0.3976768404714037
  0.7673204499550126  0.5444652489048112  0.2166914725978789
  0.5569883176884171  0.7690889471018534  0.3042962585298345
  0.8049675881866202  0.2501129694732594  0.4644206370129068
  0.8681274929169842  0.4130517390462275  0.5163010024452114
 
  0.00000000E+00  0.00000000E+00  0.00000000E+00
  0.00000000E+00  0.00000000E+00  0.00000000E+00
  0.00000000E+00  0.00000000E+00  0.00000000E+00
  0.00000000E+00  0.00000000E+00  0.00000000E+00
  0.00000000E+00  0.00000000E+00  0.00000000E+00
  0.00000000E+00  0.00000000E+00  0.00000000E+00
  0.00000000E+00  0.00000000E+00  0.00000000E+00
  0.00000000E+00  0.00000000E+00  0.00000000E+00
  0.00000000E+00  0.00000000E+00  0.00000000E+00
  0.00000000E+00  0.00000000E+00  0.00000000E+00
  0.00000000E+00  0.00000000E+00  0.00000000E+00
  0.00000000E+00  0.00000000E+00  0.00000000E+00
  0.00000000E+00  0.00000000E+00  0.00000000E+00
  0.00000000E+00  0.00000000E+00  0.00000000E+00
  0.00000000E+00  0.00000000E+00  0.00000000E+00
  0.00000000E+00  0.00000000E+00  0.00000000E+00
  0.00000000E+00  0.00000000E+00  0.00000000E+00
  0.00000000E+00  0.00000000E+00  0.00000000E+00
  0.00000000E+00  0.00000000E+00  0.00000000E+00
  0.00000000E+00  0.00000000E+00  0.00000000E+00
  0.00000000E+00  0.00000000E+00  0.00000000E+00
  0.00000000E+00  0.00000000E+00  0.00000000E+00
  0.00000000E+00  0.00000000E+00  0.00000000E+00
  0.00000000E+00  0.00000000E+00  0.00000000E+00
  0.00000000E+00  0.00000000E+00  0.00000000E+00
  0.00000000E+00  0.00000000E+00  0.00000000E+00
  0.00000000E+00  0.00000000E+00  0.00000000E+00
  0.00000000E+00  0.00000000E+00  0.00000000E+00
  0.00000000E+00  0.00000000E+00  0.00000000E+00
  0.00000000E+00  0.00000000E+00  0.00000000E+00
  0.00000000E+00  0.00000000E+00  0.00000000E+00
  0.00000000E+00  0.00000000E+00  0.00000000E+00
  0.00000000E+00  0.00000000E+00  0.00000000E+00
  0.00000000E+00  0.00000000E+00  0.00000000E+00
  0.00000000E+00  0.00000000E+00  0.00000000E+00
  0.00000000E+00  0.00000000E+00  0.00000000E+00
  0.00000000E+00  0.00000000E+00  0.00000000E+00
  0.00000000E+00  0.00000000E+00  0.00000000E+00
  0.00000000E+00  0.00000000E+00  0.00000000E+00
  0.00000000E+00  0.00000000E+00  0.00000000E+00
  0.00000000E+00  0.00000000E+00  0.00000000E+00
  0.00000000E+00  0.00000000E+00  0.00000000E+00
  0.00000000E+00  0.00000000E+00  0.00000000E+00
  0.00000000E+00  0.00000000E+00  0.00000000E+00
  0.00000000E+00  0.00000000E+00  0.00000000E+00
  0.00000000E+00  0.00000000E+00  0.00000000E+00
  0.00000000E+00  0.00000000E+00  0.00000000E+00
  0.00000000E+00  0.00000000E+00  0.00000000E+00
  0.00000000E+00  0.00000000E+00  0.00000000E+00
