step                                    
   1.00000000000000     
     8.4506998061999994    0.0000000000000000    0.0000000000000000
    -4.2253499030999997    7.3185207118999998    0.0000000000000000
     0.0000000000000000    0.0000000000000000   24.2000007629000002
   Ir   Pd   Pt   Rh   Ru   H 
     9    11     9     9    10     1
Direct
  0.5604498734261926  0.1063880860562753  0.0400722067915594
  0.5484193719559382  0.1110494456250282  0.3091326849128635
  0.7768888251136535  0.2267793022732306  0.2182018380184632
  0.0322542545427956  0.3475034010662155  0.3981937048962558
  0.3283361951132245  0.3272130415202094  0.1269376052632455
  0.8756811204743640  0.4359605598836565  0.3086123283750236
  0.0008125054937650  0.6562275590850173  0.1263055511872671
  0.3326220259705295  0.6524172084133721  0.3930723986411288
  0.8914853919090694  0.7751874651827619  0.3074167576281350
  0.0030593196095929  0.0052770527451709  0.4000152290535989
  0.2293547636213408  0.1130030177200349  0.0325266791845481
  0.3282667895938058 -0.0051315682358353  0.4028587369292229
  0.6415156569286228 -0.0173249344034600  0.3978895112124992
  0.2295566526166560  0.4415063623876864  0.3040107934624233
  0.8934965479680871  0.4403509649946327  0.0334862627055716
  0.1108476788124403  0.8825754233992859  0.2168909439338781
  0.4530727901084906  0.8865929991174408  0.2179712426098513
  0.7785108385871784  0.8868694685591444  0.2173297750039718
  0.7783891360188328  0.9206791241036351  0.4860997241760913
  0.7950693811726680  0.5466728255031276  0.4861296003786646
  0.0062234812412769  0.0025243415095197  0.1268317571607249
  0.8894082649659329  0.1088629842097218  0.3076331733422487
  0.1044228995851729  0.5445050962855427  0.2171151811622371
  0.0064994675964472  0.6584460717192457  0.3983083858436504
  0.3359254581782925  0.6646993974404797  0.1289519329054446
  0.5588072354655471  0.7791226100466198  0.0365175803227278
  0.6711987415911443  0.6612874568734327  0.1284292931595989
  0.6613717304665829  0.6601650877486064  0.3997682114398854
  0.8917853968078836  0.7708689400888217  0.0367287689614236
  0.3406043313714071  0.0019712525215264  0.1268166394222003
  0.4465335522972078  0.2297914078245132  0.2180954831550664
  0.8867778514620455  0.1157387588812722  0.0385205483038746
  0.3395584764159416  0.3407541668624604  0.3971044689394234
  0.5482286445997037  0.4334067433389207  0.0385368714300457
  0.5625319642156241  0.4453843081713504  0.3069311970827461
  0.6721119620442275  0.3270582291665313  0.1283725409784014
  0.2309995236462060  0.7726767471111748  0.0387844654542349
  0.2270344699414434  0.7859897547146292  0.3095706085721044
  0.2198609659383403  0.0964519587149592  0.3066531439185697
  0.1285088293069890  0.2309324861341611  0.2168213318196233
  0.6810564612209509  0.0191848221502934  0.1260233317650620
 -0.0007413908144569  0.3201315692327548  0.1271442148461300
  0.2298630237440433  0.4440235386719869  0.0420516929195174
  0.4522249828672752  0.5423000121746038  0.2157710619819670
  0.6501207794063003  0.3312665890054570  0.3993624767956600
  0.7697677375591245  0.5422385815419565  0.2181421148761092
  0.5620679895279033  0.7701386662644585  0.3072428697290814
  0.8139334370874202  0.2478556727044408  0.4663108958749114
  0.4235144782267713  0.2192154308939261  0.4379061924730603
 
  0.00000000E+00  0.00000000E+00  0.00000000E+00
  0.00000000E+00  0.00000000E+00  0.00000000E+00
  0.00000000E+00  0.00000000E+00  0.00000000E+00
  0.00000000E+00  0.00000000E+00  0.00000000E+00
  0.00000000E+00  0.00000000E+00  0.00000000E+00
  0.00000000E+00  0.00000000E+00  0.00000000E+00
  0.00000000E+00  0.00000000E+00  0.00000000E+00
  0.00000000E+00  0.00000000E+00  0.00000000E+00
  0.00000000E+00  0.00000000E+00  0.00000000E+00
  0.00000000E+00  0.00000000E+00  0.00000000E+00
  0.00000000E+00  0.00000000E+00  0.00000000E+00
  0.00000000E+00  0.00000000E+00  0.00000000E+00
  0.00000000E+00  0.00000000E+00  0.00000000E+00
  0.00000000E+00  0.00000000E+00  0.00000000E+00
  0.00000000E+00  0.00000000E+00  0.00000000E+00
  0.00000000E+00  0.00000000E+00  0.00000000E+00
  0.00000000E+00  0.00000000E+00  0.00000000E+00
  0.00000000E+00  0.00000000E+00  0.00000000E+00
  0.00000000E+00  0.00000000E+00  0.00000000E+00
  0.00000000E+00  0.00000000E+00  0.00000000E+00
  0.00000000E+00  0.00000000E+00  0.00000000E+00
  0.00000000E+00  0.00000000E+00  0.00000000E+00
  0.00000000E+00  0.00000000E+00  0.00000000E+00
  0.00000000E+00  0.00000000E+00  0.00000000E+00
  0.00000000E+00  0.00000000E+00  0.00000000E+00
  0.00000000E+00  0.00000000E+00  0.00000000E+00
  0.00000000E+00  0.00000000E+00  0.00000000E+00
  0.00000000E+00  0.00000000E+00  0.00000000E+00
  0.00000000E+00  0.00000000E+00  0.00000000E+00
  0.00000000E+00  0.00000000E+00  0.00000000E+00
  0.00000000E+00  0.00000000E+00  0.00000000E+00
  0.00000000E+00  0.00000000E+00  0.00000000E+00
  0.00000000E+00  0.00000000E+00  0.00000000E+00
  0.00000000E+00  0.00000000E+00  0.00000000E+00
  0.00000000E+00  0.00000000E+00  0.00000000E+00
  0.00000000E+00  0.00000000E+00  0.00000000E+00
  0.00000000E+00  0.00000000E+00  0.00000000E+00
  0.00000000E+00  0.00000000E+00  0.00000000E+00
  0.00000000E+00  0.00000000E+00  0.00000000E+00
  0.00000000E+00  0.00000000E+00  0.00000000E+00
  0.00000000E+00  0.00000000E+00  0.00000000E+00
  0.00000000E+00  0.00000000E+00  0.00000000E+00
  0.00000000E+00  0.00000000E+00  0.00000000E+00
  0.00000000E+00  0.00000000E+00  0.00000000E+00
  0.00000000E+00  0.00000000E+00  0.00000000E+00
  0.00000000E+00  0.00000000E+00  0.00000000E+00
  0.00000000E+00  0.00000000E+00  0.00000000E+00
  0.00000000E+00  0.00000000E+00  0.00000000E+00
  0.00000000E+00  0.00000000E+00  0.00000000E+00
