Amorphous+H                             
   1.00000000000000     
     8.4506998061999994    0.0000000000000000    0.0000000000000000
    -4.2253499030999997    7.3185207118999998    0.0000000000000000
     0.0000000000000000    0.0000000000000000   24.2000007629000002
   Ir   Pd   Pt   Rh   Ru   H 
     9     9     9     9     9     1
Direct
  0.7000941971418321  0.6444456592941423  0.0328877477694638
  0.9100206443543307  0.1162877062598233  0.3310117969737950
  0.4814344513684369  0.5719870666350242  0.4079122222404318
  0.5821044820580786  0.7977166895473620  0.3270819868568922
  0.0288456289989153  0.3448281246031764  0.2369214396962005
  0.2117024125646950  0.1669321030968575  0.2703614936122100
  0.4119749031402470  0.6000509648329987  0.0932300538310044
  0.2823800808764378  0.7452119555613299  0.3832182240622859
  0.0578866564139429  0.6370026710931516  0.2988644863240170
  0.8955924532792570  0.4662307724332659  0.0457934378456380
  0.7224470632553420  0.3024598682533337  0.2969301816128954
  0.8732854078682684  0.8180179541641777  0.2701960542446507
  0.7553722657712810  0.9392194665869462  0.0890703548981843
  0.7939948429157735  0.2361343759585169  0.1446741785376333
  0.3508463663134958  0.6682159017165347  0.2369032159718538
  0.6896283077913197  0.0101600902525053  0.2363510965336075
  0.5678097017996337  0.1197570001694344  0.0464998202980015
  0.1693165005938716  0.8607067007764644  0.2077966629134521
  0.8352466656544135  0.5222087829432822  0.2073098857101477
  0.6477532722164708  0.7035504784634421  0.1786056409045854
  0.2295888751846237  0.4382436241018115  0.3316903988277453
  0.8934568577251026  0.1714278157069761  0.0006079101807990
  0.2305931036273318  0.7897422476405657  0.0538917931705822
  0.4602858480203210  0.9026987938839304  0.1464038924667674
  0.9914624463188071  0.0465801814085480  0.1777552946118022
  0.3878932957752075  0.3183903477474913  0.0290757703960082
  0.0509221473795371  0.9735022600680232  0.0300261970419593
  0.6097608444981080  0.4167561646846923  0.1186593529952314
  0.0998632922210924  0.2757744889360390  0.0901522479839414
  0.4286933246713156  0.2685767129165147  0.3579284081880681
  0.5332647000379783  0.4843050197448450  0.2693209027870694
  0.1210737308065844  0.5614121176744329  0.1448561699841405
  0.2851829366872901  0.0865886661958902  0.1175801115314512
  0.3905764674822498  0.9785577346790032  0.2979707389984738
  0.9415374612264931  0.4214819716028840  0.3855562585301798
  0.6141136107235791  0.0723388531901434  0.3841488931806845
  0.3107237494728906  0.3629591737148208  0.1771614351261175
  0.2189434215398716  0.5007346248742750  0.0053478621306994
  0.8132835352097215  0.8770986565676657  0.4074583699218913
  0.7547176931855040  0.5829710801036859  0.3624352211961437
 -0.0090741390301198  0.7170753702455733  0.4336173817278374
  0.9351285156442111  0.7367330175233606  0.1145106823848597
  0.5190500334935075  0.7829968810050210  0.0019245790168063
  0.4853839258866453  0.1937171388523709  0.2072041146411578
  0.1056232329439333  0.9281090601822307  0.3574207649424422
 -0.1013352841078167  0.8357536221074209  0.4722852092001839
 
  0.00000000E+00  0.00000000E+00  0.00000000E+00
  0.00000000E+00  0.00000000E+00  0.00000000E+00
  0.00000000E+00  0.00000000E+00  0.00000000E+00
  0.00000000E+00  0.00000000E+00  0.00000000E+00
  0.00000000E+00  0.00000000E+00  0.00000000E+00
  0.00000000E+00  0.00000000E+00  0.00000000E+00
  0.00000000E+00  0.00000000E+00  0.00000000E+00
  0.00000000E+00  0.00000000E+00  0.00000000E+00
  0.00000000E+00  0.00000000E+00  0.00000000E+00
  0.00000000E+00  0.00000000E+00  0.00000000E+00
  0.00000000E+00  0.00000000E+00  0.00000000E+00
  0.00000000E+00  0.00000000E+00  0.00000000E+00
  0.00000000E+00  0.00000000E+00  0.00000000E+00
  0.00000000E+00  0.00000000E+00  0.00000000E+00
  0.00000000E+00  0.00000000E+00  0.00000000E+00
  0.00000000E+00  0.00000000E+00  0.00000000E+00
  0.00000000E+00  0.00000000E+00  0.00000000E+00
  0.00000000E+00  0.00000000E+00  0.00000000E+00
  0.00000000E+00  0.00000000E+00  0.00000000E+00
  0.00000000E+00  0.00000000E+00  0.00000000E+00
  0.00000000E+00  0.00000000E+00  0.00000000E+00
  0.00000000E+00  0.00000000E+00  0.00000000E+00
  0.00000000E+00  0.00000000E+00  0.00000000E+00
  0.00000000E+00  0.00000000E+00  0.00000000E+00
  0.00000000E+00  0.00000000E+00  0.00000000E+00
  0.00000000E+00  0.00000000E+00  0.00000000E+00
  0.00000000E+00  0.00000000E+00  0.00000000E+00
  0.00000000E+00  0.00000000E+00  0.00000000E+00
  0.00000000E+00  0.00000000E+00  0.00000000E+00
  0.00000000E+00  0.00000000E+00  0.00000000E+00
  0.00000000E+00  0.00000000E+00  0.00000000E+00
  0.00000000E+00  0.00000000E+00  0.00000000E+00
  0.00000000E+00  0.00000000E+00  0.00000000E+00
  0.00000000E+00  0.00000000E+00  0.00000000E+00
  0.00000000E+00  0.00000000E+00  0.00000000E+00
  0.00000000E+00  0.00000000E+00  0.00000000E+00
  0.00000000E+00  0.00000000E+00  0.00000000E+00
  0.00000000E+00  0.00000000E+00  0.00000000E+00
  0.00000000E+00  0.00000000E+00  0.00000000E+00
  0.00000000E+00  0.00000000E+00  0.00000000E+00
  0.00000000E+00  0.00000000E+00  0.00000000E+00
  0.00000000E+00  0.00000000E+00  0.00000000E+00
  0.00000000E+00  0.00000000E+00  0.00000000E+00
  0.00000000E+00  0.00000000E+00  0.00000000E+00
  0.00000000E+00  0.00000000E+00  0.00000000E+00
  0.00000000E+00  0.00000000E+00  0.00000000E+00
