step                                    
   1.00000000000000     
     8.4506998061999994    0.0000000000000000    0.0000000000000000
    -4.2253499030999997    7.3185207118999998    0.0000000000000000
     0.0000000000000000    0.0000000000000000   24.2000007629000002
   Ir   Pd   Pt   Rh   Ru
     9    10    10    10     9
Direct
  0.5558071037166841  0.1078615083125867  0.0394245157377703
  0.5467039569530013  0.1123133074479514  0.3092785367609924
  0.7737003556300003  0.2299263495470952  0.2171486920876980
  0.0152619482665944  0.3495055210135143  0.3967816214146306
  0.3248881416648393  0.3298868331183668  0.1265519952394948
  0.8745816686609746  0.4428895797035937  0.3064689206057978
  0.9968039225998091  0.6580250340989336  0.1256778219333822
  0.3281349951377561  0.6542873745199099  0.3925365558757752
  0.8870876678306366  0.7777496269805425  0.3067289324252362
  0.0024709862009257  0.0081983423548931  0.3996705768497050
  0.2251147562348219  0.1150461725122497  0.0321173875493519
  0.3355399270974251  0.0082898899196140  0.4009355877969352
  0.6487099909386764 -0.0082310795564234  0.4007817507825932
  0.2246125513101849  0.4436157784609130  0.3036859416817432
  0.8889612039625453  0.4426220661598588  0.0329842549109843
  0.1066553127832920  0.8847250237083473  0.2161421062545311
  0.4495605786345693  0.8890902025264513  0.2173873647045521
  0.7740247488261019  0.8892356645261423  0.2169281172578578
  0.7757587978856751  0.8771357520961335  0.4855809337475694
  0.0019932244813650  0.0049883974698102  0.1263003518821665
  0.8857452487688269  0.1103914403510241  0.3068357051981404
  0.1012240966896964  0.5469346241935170  0.2165891120184909
  0.0095429088882325  0.6669720455894798  0.3983989772551983
  0.3324481528700751  0.6671633841547528  0.1281879364216566
  0.5553416648288482  0.7819880117782371  0.0355214696023987
  0.6666850992104371  0.6644050208136872  0.1277198082161723
  0.6495463854292872  0.6536603674359928  0.3979129754969850
  0.8874275172756503  0.7731671505084929  0.0360517346548857
  0.7858134760438843  0.5499873701484455  0.4821522722999585
  0.3360387554860271  0.0035911239920990  0.1260523946698980
  0.4424202978995827  0.2306294915146917  0.2174879420153071
  0.8824030554045612  0.1178888156246736  0.0378520601904083
  0.3305747425795784  0.3337099141851672  0.3940612760810220
  0.5438680368255308  0.4364009873570220  0.0378836661685162
  0.5580273684654911  0.4443819195146615  0.3066272413059736
  0.6671571619288078  0.3292136175204377  0.1276019323601898
  0.2269840998543754  0.7752407950374852  0.0380494460658666
  0.2224141548129735  0.7874797362519123  0.3090275409609775
  0.8181243722381463  0.2552779471034687  0.4768374142923213
  0.2173276679381545  0.0993011539959021  0.3064130043135386
  0.1252442654761199  0.2326159201979532  0.2163697908168587
  0.6776779662295007  0.0220572710565663  0.1255747861002196
  0.9960622828983041  0.3235244153151530  0.1262060323535628
  0.2255968458951264  0.4459636250670093  0.0415231749206909
  0.4480617392770905  0.5447402396514888  0.2155360210288734
  0.6665609544350198  0.3315535840114350  0.3960832759607016
  0.7654134080717468  0.5450143684989787  0.2171403229523974
  0.5591263594630459  0.7746437962097776  0.3081607327800149
 
  0.00000000E+00  0.00000000E+00  0.00000000E+00
  0.00000000E+00  0.00000000E+00  0.00000000E+00
  0.00000000E+00  0.00000000E+00  0.00000000E+00
  0.00000000E+00  0.00000000E+00  0.00000000E+00
  0.00000000E+00  0.00000000E+00  0.00000000E+00
  0.00000000E+00  0.00000000E+00  0.00000000E+00
  0.00000000E+00  0.00000000E+00  0.00000000E+00
  0.00000000E+00  0.00000000E+00  0.00000000E+00
  0.00000000E+00  0.00000000E+00  0.00000000E+00
  0.00000000E+00  0.00000000E+00  0.00000000E+00
  0.00000000E+00  0.00000000E+00  0.00000000E+00
  0.00000000E+00  0.00000000E+00  0.00000000E+00
  0.00000000E+00  0.00000000E+00  0.00000000E+00
  0.00000000E+00  0.00000000E+00  0.00000000E+00
  0.00000000E+00  0.00000000E+00  0.00000000E+00
  0.00000000E+00  0.00000000E+00  0.00000000E+00
  0.00000000E+00  0.00000000E+00  0.00000000E+00
  0.00000000E+00  0.00000000E+00  0.00000000E+00
  0.00000000E+00  0.00000000E+00  0.00000000E+00
  0.00000000E+00  0.00000000E+00  0.00000000E+00
  0.00000000E+00  0.00000000E+00  0.00000000E+00
  0.00000000E+00  0.00000000E+00  0.00000000E+00
  0.00000000E+00  0.00000000E+00  0.00000000E+00
  0.00000000E+00  0.00000000E+00  0.00000000E+00
  0.00000000E+00  0.00000000E+00  0.00000000E+00
  0.00000000E+00  0.00000000E+00  0.00000000E+00
  0.00000000E+00  0.00000000E+00  0.00000000E+00
  0.00000000E+00  0.00000000E+00  0.00000000E+00
  0.00000000E+00  0.00000000E+00  0.00000000E+00
  0.00000000E+00  0.00000000E+00  0.00000000E+00
  0.00000000E+00  0.00000000E+00  0.00000000E+00
  0.00000000E+00  0.00000000E+00  0.00000000E+00
  0.00000000E+00  0.00000000E+00  0.00000000E+00
  0.00000000E+00  0.00000000E+00  0.00000000E+00
  0.00000000E+00  0.00000000E+00  0.00000000E+00
  0.00000000E+00  0.00000000E+00  0.00000000E+00
  0.00000000E+00  0.00000000E+00  0.00000000E+00
  0.00000000E+00  0.00000000E+00  0.00000000E+00
  0.00000000E+00  0.00000000E+00  0.00000000E+00
  0.00000000E+00  0.00000000E+00  0.00000000E+00
  0.00000000E+00  0.00000000E+00  0.00000000E+00
  0.00000000E+00  0.00000000E+00  0.00000000E+00
  0.00000000E+00  0.00000000E+00  0.00000000E+00
  0.00000000E+00  0.00000000E+00  0.00000000E+00
  0.00000000E+00  0.00000000E+00  0.00000000E+00
  0.00000000E+00  0.00000000E+00  0.00000000E+00
  0.00000000E+00  0.00000000E+00  0.00000000E+00
  0.00000000E+00  0.00000000E+00  0.00000000E+00
