step                                    
   1.00000000000000     
     8.4506998061999994    0.0000000000000000    0.0000000000000000
    -4.2253499030999997    7.3185207118999998    0.0000000000000000
     0.0000000000000000    0.0000000000000000   24.2000007629000002
   Ir   Pd   Pt   Rh   Ru   H 
     9    10     9    10    10     1
Direct
  0.9953306201872282  0.0071081962921918  0.1263971066319605
  0.1106383036737987  0.2133626951581123  0.2154025382923357
  0.5646032682155289  0.1243216899267774  0.0398912209240608
  0.2424526229148999  0.4569360457574369  0.0406477434178956
  0.5495266817862892  0.4428628851311798  0.0394768831522054
  0.3345140584661760  0.6753018136628510  0.1249663298542397
  0.3228355640681929  0.6728127055074212  0.3973954781508078
  0.5550530581221595  0.7813205043971958  0.0392760586934046
  0.6652168959688631  0.6703371125803443  0.1277216003207992
  0.2199324143630890  0.1191655623421253  0.0346847407619963
  0.2193689470480749  0.1110530895122006  0.3071036096955641
  0.7741779946883998  0.2263647978241779  0.2167521379749882
  0.0135325825897235  0.3328247320207476  0.4032587953914084
  0.1073350136060077  0.5591773116444894  0.2168187886123640
  0.3330384839895885  0.3312004638582647  0.4026655087739585
  0.8834392478320928  0.4435638702433454  0.0344551616590839
  0.8834685567378515  0.4462203807347343  0.3127921279706765
  0.2271149036664860  0.7822858910349689  0.0345290331550716
  0.8049743694364921  0.9154344197257723  0.4832550775146707
  0.3223264842477570 -0.0035873649098021  0.4006726402742994
  0.8845831508016681  0.1059772445858019  0.3087455245318199
  0.2159689246992000  0.4445297557333055  0.3080621509636846
  0.5576444645124117  0.4446188059448142  0.3073254267560089
  0.4421831685469685  0.5534132242845162  0.2145367352583261
  0.9956901075789141  0.6661771217937853  0.1271494641924629
  0.5512309776863277  0.7840090367887044  0.3064176628295001
  0.4482572820359244  0.8982157053747861  0.2153479138994619
  0.6521350709143282  0.6668841535360367  0.3989490350626522
  0.3392556882845621  0.0110227004641180  0.1286697159244969
  0.5528614731015833  0.1132990975398827  0.3087398168365755
  0.6467756120264901 -0.0050097656026906  0.4014944926838842
  0.8728899574719264  0.1047439008253108  0.0369813739867708
  0.0014277974042689  0.3301027024103403  0.1258894117963073
  0.2148456383347552  0.7792554468758650  0.3068828966866707
  0.1037907459773611  0.8944806929118002  0.2152139399223954
  0.8692746503651353  0.7806730829654958  0.0383916359466532
  0.8921648061113633  0.7795959229752009  0.3074053868487176
  0.8135649678759239  0.5548186826419818  0.4722029511169283
  0.9945619127348625  0.9811886826330156  0.3963053050079089
  0.4519912455597397  0.2365209839290547  0.2145719947344971
  0.6688972941261199  0.0039845965171807  0.1245258694978303
  0.3296707537620007  0.3266482198759164  0.1276372931349003
  0.6525263337855148  0.3325966061717305  0.1273360795416506
  0.6321158615441126  0.3050059123987312  0.4001921275004221
  0.7637531681039830  0.5586302925405962  0.2150590336340387
  0.0140255777846976  0.6923146575111832  0.3979239922096636
  0.7896259335520390  0.8912075093906412  0.2147112506700577
  0.7735632641198431  0.2385899869938273  0.4748422142863153
  0.2857238685892631  0.6482078775445316  0.4623667263176047
 
  0.00000000E+00  0.00000000E+00  0.00000000E+00
  0.00000000E+00  0.00000000E+00  0.00000000E+00
  0.00000000E+00  0.00000000E+00  0.00000000E+00
  0.00000000E+00  0.00000000E+00  0.00000000E+00
  0.00000000E+00  0.00000000E+00  0.00000000E+00
  0.00000000E+00  0.00000000E+00  0.00000000E+00
  0.00000000E+00  0.00000000E+00  0.00000000E+00
  0.00000000E+00  0.00000000E+00  0.00000000E+00
  0.00000000E+00  0.00000000E+00  0.00000000E+00
  0.00000000E+00  0.00000000E+00  0.00000000E+00
  0.00000000E+00  0.00000000E+00  0.00000000E+00
  0.00000000E+00  0.00000000E+00  0.00000000E+00
  0.00000000E+00  0.00000000E+00  0.00000000E+00
  0.00000000E+00  0.00000000E+00  0.00000000E+00
  0.00000000E+00  0.00000000E+00  0.00000000E+00
  0.00000000E+00  0.00000000E+00  0.00000000E+00
  0.00000000E+00  0.00000000E+00  0.00000000E+00
  0.00000000E+00  0.00000000E+00  0.00000000E+00
  0.00000000E+00  0.00000000E+00  0.00000000E+00
  0.00000000E+00  0.00000000E+00  0.00000000E+00
  0.00000000E+00  0.00000000E+00  0.00000000E+00
  0.00000000E+00  0.00000000E+00  0.00000000E+00
  0.00000000E+00  0.00000000E+00  0.00000000E+00
  0.00000000E+00  0.00000000E+00  0.00000000E+00
  0.00000000E+00  0.00000000E+00  0.00000000E+00
  0.00000000E+00  0.00000000E+00  0.00000000E+00
  0.00000000E+00  0.00000000E+00  0.00000000E+00
  0.00000000E+00  0.00000000E+00  0.00000000E+00
  0.00000000E+00  0.00000000E+00  0.00000000E+00
  0.00000000E+00  0.00000000E+00  0.00000000E+00
  0.00000000E+00  0.00000000E+00  0.00000000E+00
  0.00000000E+00  0.00000000E+00  0.00000000E+00
  0.00000000E+00  0.00000000E+00  0.00000000E+00
  0.00000000E+00  0.00000000E+00  0.00000000E+00
  0.00000000E+00  0.00000000E+00  0.00000000E+00
  0.00000000E+00  0.00000000E+00  0.00000000E+00
  0.00000000E+00  0.00000000E+00  0.00000000E+00
  0.00000000E+00  0.00000000E+00  0.00000000E+00
  0.00000000E+00  0.00000000E+00  0.00000000E+00
  0.00000000E+00  0.00000000E+00  0.00000000E+00
  0.00000000E+00  0.00000000E+00  0.00000000E+00
  0.00000000E+00  0.00000000E+00  0.00000000E+00
  0.00000000E+00  0.00000000E+00  0.00000000E+00
  0.00000000E+00  0.00000000E+00  0.00000000E+00
  0.00000000E+00  0.00000000E+00  0.00000000E+00
  0.00000000E+00  0.00000000E+00  0.00000000E+00
  0.00000000E+00  0.00000000E+00  0.00000000E+00
  0.00000000E+00  0.00000000E+00  0.00000000E+00
  0.00000000E+00  0.00000000E+00  0.00000000E+00
