step                                    
   1.00000000000000     
     8.4506998061999994    0.0000000000000000    0.0000000000000000
    -4.2253499030999997    7.3185207118999998    0.0000000000000000
     0.0000000000000000    0.0000000000000000   24.2000007629000002
   Ir   Pd   Pt   Rh   Ru   H 
     9    11    10     9     9     1
Direct
  0.5549974365291938  0.1074421190943371  0.0395527560975308
  0.5469128228259694  0.1110303976398060  0.3088041415142783
  0.7735239808642643  0.2296242074522233  0.2171378565788710
  0.0106343881723063  0.3498466711434226  0.3959839581657262
  0.3240112499839649  0.3304541185513344  0.1267337370745927
  0.8744031452665554  0.4414766827601330  0.3064969693756912
  0.9959390267355135  0.6577760927800758  0.1260456489368847
  0.3262824534632967  0.6530473742418191  0.3926047690418428
  0.8866795008848789  0.7770243838536730  0.3068613579634250
  0.0060224827511043  0.0095112241210855  0.3992838796367661
  0.2246076399900422  0.1145528836772836  0.0321824058352584
  0.3373972723060562  0.0091993128468670  0.4024591179949270
  0.6487271997814482  0.9862188306562232  0.3987243333029296
  0.2213173905060116  0.4414824996892856  0.3042561863506309
  0.8882187983840425  0.4426362816893341  0.0332026040650329
  0.1061451149016801  0.8845461959914476  0.2164442890316579
  0.4486235568751585  0.8883483632989905  0.2173358176090175
  0.7731384451409677  0.8875104856810270  0.2168380633774103
  0.7841201300397446  0.8925352885264289  0.4855138291807807
  0.7911175989877395  0.5570619621696150  0.4851655576962788
  0.0014977581225866  0.0047538221355951  0.1263493995782548
  0.8842469063905015  0.1077339629073331  0.3064625153049940
  0.1012375031955844  0.5465775691495383  0.2166604629770204
  0.0069607933684667  0.6668548379696728  0.3985160286187529
  0.3314113124051202  0.6668210739541663  0.1280915209264980
  0.5546524675574231  0.7818179548172799  0.0356221248653144
  0.6651007040707972  0.6636120531764241  0.1279767781566267
  0.6505645252861992  0.6547922410750295  0.3988826737145632
  0.8870728609785820  0.7731035329700402  0.0361611969221200
  0.8088703544632475  0.2373042396665632  0.4822952046415596
  0.3354738098943693  0.0036246278823129  0.1264274469244538
  0.4422446025358423  0.2312317832941488  0.2174549737236778
  0.8815550799511960  0.1176995882117815  0.0379558975613470
  0.3313046432431028  0.3358725771354472  0.3944526513802284
  0.5431629354516375  0.4365192044011380  0.0380855407713149
  0.5578671365894463  0.4414257371481102  0.3073548044106953
  0.6665300884472191  0.3286856704526196  0.1276794091835851
  0.2256131688673010  0.7757720514492777  0.0381096459000131
  0.2241699760961333  0.7895925728936596  0.3093563420414684
  0.2181363076941067  0.0993032377652825  0.3068543972965727
  0.1250074489138925  0.2318655977834347  0.2165084482730900
  0.6767225600651352  0.0213416752639631  0.1256586833523208
  0.9955772608548384  0.3229937549475110  0.1263901972953592
  0.2251486096656032  0.4457158425944586  0.0415705606752851
  0.4472331590457729  0.5436129610766488  0.2166984499675038
  0.6702234585745698  0.3422707380502888  0.3957819371359307
  0.7657506444168380  0.5454635833013129  0.2173294145885080
  0.5552923574399793  0.7726035913239810  0.3074603161349654
  0.5968417970245576  0.1464980283385436  0.4498257078484433
 
  0.00000000E+00  0.00000000E+00  0.00000000E+00
  0.00000000E+00  0.00000000E+00  0.00000000E+00
  0.00000000E+00  0.00000000E+00  0.00000000E+00
  0.00000000E+00  0.00000000E+00  0.00000000E+00
  0.00000000E+00  0.00000000E+00  0.00000000E+00
  0.00000000E+00  0.00000000E+00  0.00000000E+00
  0.00000000E+00  0.00000000E+00  0.00000000E+00
  0.00000000E+00  0.00000000E+00  0.00000000E+00
  0.00000000E+00  0.00000000E+00  0.00000000E+00
  0.00000000E+00  0.00000000E+00  0.00000000E+00
  0.00000000E+00  0.00000000E+00  0.00000000E+00
  0.00000000E+00  0.00000000E+00  0.00000000E+00
  0.00000000E+00  0.00000000E+00  0.00000000E+00
  0.00000000E+00  0.00000000E+00  0.00000000E+00
  0.00000000E+00  0.00000000E+00  0.00000000E+00
  0.00000000E+00  0.00000000E+00  0.00000000E+00
  0.00000000E+00  0.00000000E+00  0.00000000E+00
  0.00000000E+00  0.00000000E+00  0.00000000E+00
  0.00000000E+00  0.00000000E+00  0.00000000E+00
  0.00000000E+00  0.00000000E+00  0.00000000E+00
  0.00000000E+00  0.00000000E+00  0.00000000E+00
  0.00000000E+00  0.00000000E+00  0.00000000E+00
  0.00000000E+00  0.00000000E+00  0.00000000E+00
  0.00000000E+00  0.00000000E+00  0.00000000E+00
  0.00000000E+00  0.00000000E+00  0.00000000E+00
  0.00000000E+00  0.00000000E+00  0.00000000E+00
  0.00000000E+00  0.00000000E+00  0.00000000E+00
  0.00000000E+00  0.00000000E+00  0.00000000E+00
  0.00000000E+00  0.00000000E+00  0.00000000E+00
  0.00000000E+00  0.00000000E+00  0.00000000E+00
  0.00000000E+00  0.00000000E+00  0.00000000E+00
  0.00000000E+00  0.00000000E+00  0.00000000E+00
  0.00000000E+00  0.00000000E+00  0.00000000E+00
  0.00000000E+00  0.00000000E+00  0.00000000E+00
  0.00000000E+00  0.00000000E+00  0.00000000E+00
  0.00000000E+00  0.00000000E+00  0.00000000E+00
  0.00000000E+00  0.00000000E+00  0.00000000E+00
  0.00000000E+00  0.00000000E+00  0.00000000E+00
  0.00000000E+00  0.00000000E+00  0.00000000E+00
  0.00000000E+00  0.00000000E+00  0.00000000E+00
  0.00000000E+00  0.00000000E+00  0.00000000E+00
  0.00000000E+00  0.00000000E+00  0.00000000E+00
  0.00000000E+00  0.00000000E+00  0.00000000E+00
  0.00000000E+00  0.00000000E+00  0.00000000E+00
  0.00000000E+00  0.00000000E+00  0.00000000E+00
  0.00000000E+00  0.00000000E+00  0.00000000E+00
  0.00000000E+00  0.00000000E+00  0.00000000E+00
  0.00000000E+00  0.00000000E+00  0.00000000E+00
  0.00000000E+00  0.00000000E+00  0.00000000E+00
