step                                    
   1.00000000000000     
     8.4506998061999994    0.0000000000000000    0.0000000000000000
    -4.2253499030999997    7.3185207118999998    0.0000000000000000
     0.0000000000000000    0.0000000000000000   24.2000007629000002
   Ir   Pd   Pt   Rh   Ru   H 
    10     9    10     9    10     1
Direct
  0.9943274787570883  0.0002343450512507  0.1267257112576375
  0.1097086085248115  0.2063302462395503  0.2162937898033838
  0.5635323282230417  0.1161155838886345  0.0403332123271115
  0.2418783224883508  0.4495043841789096  0.0410508840284961
  0.5485966576658169  0.4357144486708837  0.0400832980602591
  0.3330418017868499  0.6673219125264227  0.1252467931820330
  0.3235099719250761  0.6742354090856938  0.3956011474341785
  0.5535585325556456  0.7738746665141729  0.0396444239998618
  0.6646548536171377  0.6635415460157390  0.1280688846543636
  0.8103737703815748  0.5611078989400043  0.4700456983682588
  0.2202209552890104  0.1119457238729258  0.0351124829267858
  0.2177838405046552  0.1027512598930547  0.3081655055533388
  0.7731241833726044  0.2190720179074601  0.2172643214192293
  0.0113621330000054  0.3336169706183346  0.4039956666483825
  0.1068132296953163  0.5518958749136424  0.2166384182877502
  0.3301968026259798  0.3227799928300856  0.4040434089549256
  0.8819286538325605  0.4354221153915726  0.0351973007576114
  0.8845140737221376  0.4420944446410265  0.3117050091582644
  0.2257961261700866  0.7745206352894927  0.0349012357540595
  0.3261725913755816 -0.0112709519258083  0.4030323213529065
  0.8864815929149519  0.1015961390397705  0.3094008496672386
  0.2173068940076507  0.4390318265919357  0.3084538679759748
  0.5578199234470722  0.4378998356156070  0.3080596200148127
  0.4409500463794449  0.5456310090995584  0.2147039338264183
  0.9945448885258982  0.6599457668781357  0.1276507887306323
  0.5532142759421830  0.7796587199832874  0.3056642429847399
  0.4496058199157208  0.8918879727495262  0.2149904887039213
  0.6391825620498915  0.6582638336413996  0.3976527250798597
  0.7974678230234056  0.8646515114909661  0.4851509344539787
  0.3370377636860934  0.0033972173183813  0.1289862826586149
  0.5526803220831674  0.1069489399161987  0.3097937943779470
  0.6565449187257916 -0.0074895225496263  0.4058673103857944
  0.8721128529717471  0.0979035857606639  0.0372960479589649
  0.0004676414955447  0.3220197165367606  0.1264203138539165
  0.2179477741640813  0.7737828236665893  0.3063780201786528
  0.1044573659826586  0.8878478433114424  0.2164153615559931
  0.8680869434096626  0.7726046516786288  0.0388756854097369
  0.8933564231607225  0.7733554682628191  0.3078762106012897
  0.9838579000136923  0.9761197708116252  0.3984541926734934
  0.4510607515330556  0.2284286211957527  0.2151614399793304
  0.6695739838753448 -0.0032361971417163  0.1248749166751392
  0.3277879022163824  0.3176688912878227  0.1283860306228912
  0.6509871898930184  0.3254216383774966  0.1279094604290152
  0.6381120264599855  0.2963572681276382  0.3996965491732172
  0.7627195100443819  0.5509587954652470  0.2153780202212696
  0.0201705579439009  0.6793481680023925  0.3978576816279514
  0.7869681397129761  0.8823816022350349  0.2157063860401328
  0.7807622865181009  0.2590262676631070  0.4788815891983805
  0.1982087203901284  0.0885588814405019  0.4369477440118529
 
  0.00000000E+00  0.00000000E+00  0.00000000E+00
  0.00000000E+00  0.00000000E+00  0.00000000E+00
  0.00000000E+00  0.00000000E+00  0.00000000E+00
  0.00000000E+00  0.00000000E+00  0.00000000E+00
  0.00000000E+00  0.00000000E+00  0.00000000E+00
  0.00000000E+00  0.00000000E+00  0.00000000E+00
  0.00000000E+00  0.00000000E+00  0.00000000E+00
  0.00000000E+00  0.00000000E+00  0.00000000E+00
  0.00000000E+00  0.00000000E+00  0.00000000E+00
  0.00000000E+00  0.00000000E+00  0.00000000E+00
  0.00000000E+00  0.00000000E+00  0.00000000E+00
  0.00000000E+00  0.00000000E+00  0.00000000E+00
  0.00000000E+00  0.00000000E+00  0.00000000E+00
  0.00000000E+00  0.00000000E+00  0.00000000E+00
  0.00000000E+00  0.00000000E+00  0.00000000E+00
  0.00000000E+00  0.00000000E+00  0.00000000E+00
  0.00000000E+00  0.00000000E+00  0.00000000E+00
  0.00000000E+00  0.00000000E+00  0.00000000E+00
  0.00000000E+00  0.00000000E+00  0.00000000E+00
  0.00000000E+00  0.00000000E+00  0.00000000E+00
  0.00000000E+00  0.00000000E+00  0.00000000E+00
  0.00000000E+00  0.00000000E+00  0.00000000E+00
  0.00000000E+00  0.00000000E+00  0.00000000E+00
  0.00000000E+00  0.00000000E+00  0.00000000E+00
  0.00000000E+00  0.00000000E+00  0.00000000E+00
  0.00000000E+00  0.00000000E+00  0.00000000E+00
  0.00000000E+00  0.00000000E+00  0.00000000E+00
  0.00000000E+00  0.00000000E+00  0.00000000E+00
  0.00000000E+00  0.00000000E+00  0.00000000E+00
  0.00000000E+00  0.00000000E+00  0.00000000E+00
  0.00000000E+00  0.00000000E+00  0.00000000E+00
  0.00000000E+00  0.00000000E+00  0.00000000E+00
  0.00000000E+00  0.00000000E+00  0.00000000E+00
  0.00000000E+00  0.00000000E+00  0.00000000E+00
  0.00000000E+00  0.00000000E+00  0.00000000E+00
  0.00000000E+00  0.00000000E+00  0.00000000E+00
  0.00000000E+00  0.00000000E+00  0.00000000E+00
  0.00000000E+00  0.00000000E+00  0.00000000E+00
  0.00000000E+00  0.00000000E+00  0.00000000E+00
  0.00000000E+00  0.00000000E+00  0.00000000E+00
  0.00000000E+00  0.00000000E+00  0.00000000E+00
  0.00000000E+00  0.00000000E+00  0.00000000E+00
  0.00000000E+00  0.00000000E+00  0.00000000E+00
  0.00000000E+00  0.00000000E+00  0.00000000E+00
  0.00000000E+00  0.00000000E+00  0.00000000E+00
  0.00000000E+00  0.00000000E+00  0.00000000E+00
  0.00000000E+00  0.00000000E+00  0.00000000E+00
  0.00000000E+00  0.00000000E+00  0.00000000E+00
  0.00000000E+00  0.00000000E+00  0.00000000E+00
