5L_3x3_(1\1\1)                          
   1.00000000000000     
     8.4506998061999994    0.0000000000000000    0.0000000000000000
    -4.2253499030999997    7.3185207118999998    0.0000000000000000
     0.0000000000000000    0.0000000000000000   24.2000007629000002
   Ir   Pd   Pt   Rh   Ru   H 
     9     9     9     8     9     1
Direct
  0.9949904994036440  0.0040294567534221  0.1260781378523367
  0.1131491949011438  0.2114329049549120  0.2151892075114291
  0.5648471608510832  0.1199382104276352  0.0396231404296962
  0.2448925510537166  0.4542842816706223  0.0407688354295054
  0.5503331291100698  0.4393337928513467  0.0396406951732011
  0.3378792112075936  0.6733835605620593  0.1252113981385703
  0.3051845857831441  0.6566584254679232  0.3940955321321243
  0.5552990224158678  0.7783200922515965  0.0386215871289610
  0.6653272091538346  0.6688204927484627  0.1273570791206485
  0.2220463849020704  0.1167556749257733  0.0352860978757877
  0.2249134650294765  0.1105846489013082  0.3059379443866519
  0.7771615872943909  0.2202280625482170  0.2161015611553773
  0.9890694131332086  0.3327000572223292  0.4012082064191020
  0.1117471374263197  0.5596557695934158  0.2152135522194937
  0.3265760047310676  0.3330711721648072  0.4017778538514534
  0.8837606410122947  0.4397504165606467  0.0339527243570930
  0.8878003789039800  0.4448166920841191  0.3068681061585271
  0.2289543099896338  0.7793046385376766  0.0342259878090762
  0.3360574482846206 -0.0015476313002126  0.3979307704729049
  0.8836660259297009  0.1005549819049076  0.3119708193496836
  0.2152874641399830  0.4385096452106779  0.3061774838967358
  0.5596132979949672  0.4423277191885052  0.3054090456833923
  0.4467787366439072  0.5522407657697160  0.2151951333476123
  0.9970198313398673  0.6642945309141449  0.1261267566748358
  0.5570286335866730  0.7871288655733245  0.3109234551311548
  0.4502099342259363  0.8956124125491567  0.2166108627635087
  0.6723028374868727  0.6653299129009959  0.3983794289624031
  0.3420099396331339  0.0071257200635754  0.1290083659093751
  0.5623498860095626  0.1110908907541045  0.3121369510068635
  0.8757544308584045  0.1024142052908719  0.0368929751940088
  0.0031260518925498  0.3276429906153682  0.1251635315000860
  0.2222854701569118  0.7804785350833269  0.3073775183142061
  0.1053506829878886  0.8917650338765183  0.2146557833112681
  0.8698137599489028  0.7769075359241343  0.0379999640869479
  0.8921964620749929  0.7794522553129697  0.3056152152002433
  0.0059783099905931  0.9710291539836161  0.3941089083735361
  0.4553615397548365  0.2317089652313909  0.2145478039420895
  0.6712876481442853  0.0005799263836578  0.1242705107558792
  0.3330151826871697  0.3234680966523056  0.1286842748703522
  0.6548458636671878  0.3282884037155297  0.1268750666833506
  0.6618030577045875  0.3368845852338948  0.3941796433964422
  0.7675165320954085  0.5555533259776296  0.2136670308366380
  0.0104348419061330  0.6777987168627874  0.3935480223799186
  0.7893461562704718  0.8867691012146406  0.2150901125166457
  0.5649200522352450  0.4557781198571236  0.4374553712690144
 
  0.00000000E+00  0.00000000E+00  0.00000000E+00
  0.00000000E+00  0.00000000E+00  0.00000000E+00
  0.00000000E+00  0.00000000E+00  0.00000000E+00
  0.00000000E+00  0.00000000E+00  0.00000000E+00
  0.00000000E+00  0.00000000E+00  0.00000000E+00
  0.00000000E+00  0.00000000E+00  0.00000000E+00
  0.00000000E+00  0.00000000E+00  0.00000000E+00
  0.00000000E+00  0.00000000E+00  0.00000000E+00
  0.00000000E+00  0.00000000E+00  0.00000000E+00
  0.00000000E+00  0.00000000E+00  0.00000000E+00
  0.00000000E+00  0.00000000E+00  0.00000000E+00
  0.00000000E+00  0.00000000E+00  0.00000000E+00
  0.00000000E+00  0.00000000E+00  0.00000000E+00
  0.00000000E+00  0.00000000E+00  0.00000000E+00
  0.00000000E+00  0.00000000E+00  0.00000000E+00
  0.00000000E+00  0.00000000E+00  0.00000000E+00
  0.00000000E+00  0.00000000E+00  0.00000000E+00
  0.00000000E+00  0.00000000E+00  0.00000000E+00
  0.00000000E+00  0.00000000E+00  0.00000000E+00
  0.00000000E+00  0.00000000E+00  0.00000000E+00
  0.00000000E+00  0.00000000E+00  0.00000000E+00
  0.00000000E+00  0.00000000E+00  0.00000000E+00
  0.00000000E+00  0.00000000E+00  0.00000000E+00
  0.00000000E+00  0.00000000E+00  0.00000000E+00
  0.00000000E+00  0.00000000E+00  0.00000000E+00
  0.00000000E+00  0.00000000E+00  0.00000000E+00
  0.00000000E+00  0.00000000E+00  0.00000000E+00
  0.00000000E+00  0.00000000E+00  0.00000000E+00
  0.00000000E+00  0.00000000E+00  0.00000000E+00
  0.00000000E+00  0.00000000E+00  0.00000000E+00
  0.00000000E+00  0.00000000E+00  0.00000000E+00
  0.00000000E+00  0.00000000E+00  0.00000000E+00
  0.00000000E+00  0.00000000E+00  0.00000000E+00
  0.00000000E+00  0.00000000E+00  0.00000000E+00
  0.00000000E+00  0.00000000E+00  0.00000000E+00
  0.00000000E+00  0.00000000E+00  0.00000000E+00
  0.00000000E+00  0.00000000E+00  0.00000000E+00
  0.00000000E+00  0.00000000E+00  0.00000000E+00
  0.00000000E+00  0.00000000E+00  0.00000000E+00
  0.00000000E+00  0.00000000E+00  0.00000000E+00
  0.00000000E+00  0.00000000E+00  0.00000000E+00
  0.00000000E+00  0.00000000E+00  0.00000000E+00
  0.00000000E+00  0.00000000E+00  0.00000000E+00
  0.00000000E+00  0.00000000E+00  0.00000000E+00
  0.00000000E+00  0.00000000E+00  0.00000000E+00
