step                                    
   1.00000000000000     
     8.4506998061999994    0.0000000000000000    0.0000000000000000
    -4.2253499030999997    7.3185207118999998    0.0000000000000000
     0.0000000000000000    0.0000000000000000   24.2000007629000002
   Ir   Pd   Pt   Rh   Ru   H 
     9    10     9     9    11     1
Direct
  0.9962827480543809  0.0039229763452460  0.1256400739111874
  0.1127638434302640  0.2103952072216065  0.2146310326294836
  0.5659819136567559  0.1201108484670117  0.0394364015539352
  0.2447048255626736  0.4541713478932936  0.0394792908230875
  0.5512311377122341  0.4393740155588287  0.0389685831221336
  0.3368395611603774  0.6707754832915782  0.1241257510258666
  0.3232324308775677  0.6795802952410265  0.3947563804805400
  0.5567260577955996  0.7781788967704344  0.0384100034601907
  0.6673504165740826  0.6687259974622115  0.1274831812849696
  0.2219041282832445  0.1159901998190773  0.0337977427142779
  0.2261727362077224  0.1090117237133667  0.3043777135964226
  0.7776100350619974  0.2233786308665916  0.2154672764182398
  0.0014603637776374  0.3365916367117497  0.4027555790693950
  0.1108878828902460  0.5563441960248680  0.2153851172391961
  0.3188650822054627  0.3152912296082115  0.4013881687124639
  0.8843951318309631  0.4395043880198923  0.0335576337400874
  0.8888894583182287  0.4497125358340938  0.3099692734996946
  0.2287211518333812  0.7784355954108054  0.0337687443302000
  0.7652513053418650  0.2307346793175870  0.4857331375006300
  0.3348027234480410  0.0016248254420623  0.4004789786903213
  0.8905812284425562  0.1054994980543039  0.3101200596767377
  0.2181179920337241  0.4424428429102891  0.3080900439525284
  0.5592449102706809  0.4376835006353830  0.3059146137717323
  0.4431640906089774  0.5478602690144863  0.2144223988723386
  0.9967950687429828  0.6633943781906259  0.1262925267495527
  0.5548345354547999  0.7833747823450874  0.3043385007944368
  0.4511148901811399  0.8964940488233890  0.2135893707029450
  0.6173949669650138  0.6438976065775606  0.3972292761114266
  0.3382806525987524  0.0074909824887856  0.1274103947969266
  0.5607008597949028  0.1134493993910995  0.3071186364801076
  0.6442319035282394  0.9938704521439368  0.4006447287398601
  0.8740272780029483  0.1017145912951363  0.0360362843935002
  0.0030985166098239  0.3264929012172108  0.1246841410384393
  0.2208901336853549  0.7795393757211692  0.3047387358698085
  0.1060899884775004  0.8908344193226120  0.2151371538263885
  0.8710795576375742  0.7768784566328502  0.0377759111556242
  0.8915814361009505  0.7788130920020010  0.3115171136229264
  0.0226802520447283  0.9937601449048408  0.3974142296355180
  0.4543679781380049  0.2315302121031304  0.2127897089694330
  0.6722245158864004 -0.0009119663235633  0.1238962736625321
  0.3308187804867043  0.3234470399881275  0.1268298954892544
  0.6559871502474218  0.3318150215968034  0.1265756723590942
  0.6446176527815469  0.3151120700165997  0.3979412178750675
  0.7661516233606498  0.5544546346639444  0.2142202120800502
  0.0281180375136684  0.6869478626478281  0.3981950874796853
  0.7916103523752918  0.8888027812258743  0.2154397107182804
  0.8158498473064825  0.5788148960094812  0.4637808622623750
  0.8243759956544181  0.8981694172430654  0.4641963844222274
  0.8498366130460200  0.4502721861383914  0.5160907936888773
 
  0.00000000E+00  0.00000000E+00  0.00000000E+00
  0.00000000E+00  0.00000000E+00  0.00000000E+00
  0.00000000E+00  0.00000000E+00  0.00000000E+00
  0.00000000E+00  0.00000000E+00  0.00000000E+00
  0.00000000E+00  0.00000000E+00  0.00000000E+00
  0.00000000E+00  0.00000000E+00  0.00000000E+00
  0.00000000E+00  0.00000000E+00  0.00000000E+00
  0.00000000E+00  0.00000000E+00  0.00000000E+00
  0.00000000E+00  0.00000000E+00  0.00000000E+00
  0.00000000E+00  0.00000000E+00  0.00000000E+00
  0.00000000E+00  0.00000000E+00  0.00000000E+00
  0.00000000E+00  0.00000000E+00  0.00000000E+00
  0.00000000E+00  0.00000000E+00  0.00000000E+00
  0.00000000E+00  0.00000000E+00  0.00000000E+00
  0.00000000E+00  0.00000000E+00  0.00000000E+00
  0.00000000E+00  0.00000000E+00  0.00000000E+00
  0.00000000E+00  0.00000000E+00  0.00000000E+00
  0.00000000E+00  0.00000000E+00  0.00000000E+00
  0.00000000E+00  0.00000000E+00  0.00000000E+00
  0.00000000E+00  0.00000000E+00  0.00000000E+00
  0.00000000E+00  0.00000000E+00  0.00000000E+00
  0.00000000E+00  0.00000000E+00  0.00000000E+00
  0.00000000E+00  0.00000000E+00  0.00000000E+00
  0.00000000E+00  0.00000000E+00  0.00000000E+00
  0.00000000E+00  0.00000000E+00  0.00000000E+00
  0.00000000E+00  0.00000000E+00  0.00000000E+00
  0.00000000E+00  0.00000000E+00  0.00000000E+00
  0.00000000E+00  0.00000000E+00  0.00000000E+00
  0.00000000E+00  0.00000000E+00  0.00000000E+00
  0.00000000E+00  0.00000000E+00  0.00000000E+00
  0.00000000E+00  0.00000000E+00  0.00000000E+00
  0.00000000E+00  0.00000000E+00  0.00000000E+00
  0.00000000E+00  0.00000000E+00  0.00000000E+00
  0.00000000E+00  0.00000000E+00  0.00000000E+00
  0.00000000E+00  0.00000000E+00  0.00000000E+00
  0.00000000E+00  0.00000000E+00  0.00000000E+00
  0.00000000E+00  0.00000000E+00  0.00000000E+00
  0.00000000E+00  0.00000000E+00  0.00000000E+00
  0.00000000E+00  0.00000000E+00  0.00000000E+00
  0.00000000E+00  0.00000000E+00  0.00000000E+00
  0.00000000E+00  0.00000000E+00  0.00000000E+00
  0.00000000E+00  0.00000000E+00  0.00000000E+00
  0.00000000E+00  0.00000000E+00  0.00000000E+00
  0.00000000E+00  0.00000000E+00  0.00000000E+00
  0.00000000E+00  0.00000000E+00  0.00000000E+00
  0.00000000E+00  0.00000000E+00  0.00000000E+00
  0.00000000E+00  0.00000000E+00  0.00000000E+00
  0.00000000E+00  0.00000000E+00  0.00000000E+00
  0.00000000E+00  0.00000000E+00  0.00000000E+00
