total                                   
   1.00000000000000     
     8.4506998061999994    0.0000000000000000    0.0000000000000000
    -4.2253499030999997    7.3185207118999998    0.0000000000000000
     0.0000000000000000    0.0000000000000000   24.2000007629000002
   Ir   Pd   Pt   Rh   Ru   H 
     9     9     9     9     9     1
Direct
  0.9776789222783165  0.0007099508741228  0.0061550097019384
  0.4694390513114360  0.0035903437973168  0.0077561983692510
  0.0631843662198362  0.1877645764801766  0.3192261763608016
  0.6030370028372785  0.7560292720243078  0.2892884002242540
  0.4219545648013227  0.3937079591131149  0.3266829537718033
  0.8332265002694406  0.6755881091563977  0.0427092489068054
  0.2440631305147874  0.0424665245540593  0.3605795920502108
  0.4629139520720807  0.4701964573948520  0.2141066339342817
  0.8922124778191527  0.8376645221635021  0.3528542325198060
  0.6371580180746163  0.8284968593775399  0.1741653350044329
  0.9427322831043294  0.9638050174688253  0.1170083531979010
  0.4989091406123871  0.5421427425271332  0.0889785046293963
  0.1394604957584082  0.8372600471681869  0.1730226271307779
  0.7859858787424597  0.1246170397069373  0.2520904864342556
  0.3347803524766717  0.2276242759115979  0.0086439107838908
  0.6334949904558109  0.3205777641518678  0.0712143919795872
  0.1317908164387520  0.3199846099053105  0.0715083802891163
  0.2839346344945554  0.6056408042931445  0.1563257127952113
  0.9243752195946038  0.8987968183669334  0.2368468936858124
  0.1070976787623291  0.2566190716163396  0.1947405888879107
  0.9592049141722642  0.4832646574050473  0.2158544414010198
  0.0673816791541669  0.6905782200404915  0.3992375947890143
  0.5977258521195229  0.2596090167467277  0.1959079136962212
  0.2424756231865062  0.5440394046897439  0.2764031739228617
  0.2147130482545581  0.4739727826737767  0.3910490674692144
  0.4214090586619684  0.9038278290986271  0.2373887903559355
  0.4649343487306385  0.9641019629834713  0.1169304591169625
  0.1706297114439570  0.8959864204961521  0.0609387621668518
  0.9848412828733252  0.5372058898743698  0.1061161566817316
  0.6169888483708806  0.7884138753476925  0.0080676250199542
  0.2836010312513265  0.6721949560754598  0.0401357923953913
  0.7048540918760983  0.4734565531482187  0.3878623849701194
  0.3888612397899427  0.8353838710659687  0.3534651950586049
  0.9419672046783608  0.4431746220767473  0.0079267465387112
  0.8219587306638558  0.1998767535970722  0.1379609675002453
  0.5701216324947020  0.1918490098299394  0.3175990075360127
  0.7465854014678582  0.5461096597481914  0.2781440566659434
  0.7804266143473513  0.1136957741977457  0.0389312855974083
  0.5780397310881348  0.7037628129599296  0.3928767868123855
  0.2827917375037835  0.1229746169173394  0.2502731899612542
  0.1021510639444044  0.7648779209085483  0.2887843465151604
  0.9168695592936261  0.3931242294169075  0.3303763515834371
  0.3186042824379290  0.1867106546355755  0.1335497305867915
  0.7694960964659402  0.6096817046121552  0.1606899739253607
  0.7384594686644047  0.0325461464938602  0.3614142431854158
  0.8817682424259157  0.5594579119085802  0.4410223868905318
 
  0.00000000E+00  0.00000000E+00  0.00000000E+00
  0.00000000E+00  0.00000000E+00  0.00000000E+00
  0.00000000E+00  0.00000000E+00  0.00000000E+00
  0.00000000E+00  0.00000000E+00  0.00000000E+00
  0.00000000E+00  0.00000000E+00  0.00000000E+00
  0.00000000E+00  0.00000000E+00  0.00000000E+00
  0.00000000E+00  0.00000000E+00  0.00000000E+00
  0.00000000E+00  0.00000000E+00  0.00000000E+00
  0.00000000E+00  0.00000000E+00  0.00000000E+00
  0.00000000E+00  0.00000000E+00  0.00000000E+00
  0.00000000E+00  0.00000000E+00  0.00000000E+00
  0.00000000E+00  0.00000000E+00  0.00000000E+00
  0.00000000E+00  0.00000000E+00  0.00000000E+00
  0.00000000E+00  0.00000000E+00  0.00000000E+00
  0.00000000E+00  0.00000000E+00  0.00000000E+00
  0.00000000E+00  0.00000000E+00  0.00000000E+00
  0.00000000E+00  0.00000000E+00  0.00000000E+00
  0.00000000E+00  0.00000000E+00  0.00000000E+00
  0.00000000E+00  0.00000000E+00  0.00000000E+00
  0.00000000E+00  0.00000000E+00  0.00000000E+00
  0.00000000E+00  0.00000000E+00  0.00000000E+00
  0.00000000E+00  0.00000000E+00  0.00000000E+00
  0.00000000E+00  0.00000000E+00  0.00000000E+00
  0.00000000E+00  0.00000000E+00  0.00000000E+00
  0.00000000E+00  0.00000000E+00  0.00000000E+00
  0.00000000E+00  0.00000000E+00  0.00000000E+00
  0.00000000E+00  0.00000000E+00  0.00000000E+00
  0.00000000E+00  0.00000000E+00  0.00000000E+00
  0.00000000E+00  0.00000000E+00  0.00000000E+00
  0.00000000E+00  0.00000000E+00  0.00000000E+00
  0.00000000E+00  0.00000000E+00  0.00000000E+00
  0.00000000E+00  0.00000000E+00  0.00000000E+00
  0.00000000E+00  0.00000000E+00  0.00000000E+00
  0.00000000E+00  0.00000000E+00  0.00000000E+00
  0.00000000E+00  0.00000000E+00  0.00000000E+00
  0.00000000E+00  0.00000000E+00  0.00000000E+00
  0.00000000E+00  0.00000000E+00  0.00000000E+00
  0.00000000E+00  0.00000000E+00  0.00000000E+00
  0.00000000E+00  0.00000000E+00  0.00000000E+00
  0.00000000E+00  0.00000000E+00  0.00000000E+00
  0.00000000E+00  0.00000000E+00  0.00000000E+00
  0.00000000E+00  0.00000000E+00  0.00000000E+00
  0.00000000E+00  0.00000000E+00  0.00000000E+00
  0.00000000E+00  0.00000000E+00  0.00000000E+00
  0.00000000E+00  0.00000000E+00  0.00000000E+00
  0.00000000E+00  0.00000000E+00  0.00000000E+00
