step                                    
   1.00000000000000     
     8.4506998061999994    0.0000000000000000    0.0000000000000000
    -4.2253499030999997    7.3185207118999998    0.0000000000000000
     0.0000000000000000    0.0000000000000000   24.2000007629000002
   Ir   Pd   Pt   Rh   Ru   H 
    10     9     9    11     9     1
Direct
  0.9955795038925643  0.0040937718868204  0.1253153198923027
  0.1121153409772622  0.2106648023721415  0.2145118631740882
  0.5648478562573860  0.1204045049408650  0.0389944191676118
  0.2436678936459710  0.4536906557684883  0.0394921071216869
  0.5502487361193400  0.4396508930945999  0.0386367034346687
  0.3353611853190890  0.6712795788326967  0.1238473756668738
  0.3253394538767626  0.6789007883183042  0.3942121642367291
  0.5554005333352431  0.7774731896777242  0.0382078246027128
  0.6667424627073278  0.6683026766282578  0.1269952361842890
  0.8080832046726567  0.5676631209005841  0.4676395004648479
  0.2211060452549450  0.1157983618109407  0.0335388121070420
  0.2239461577360620  0.1095015521883769  0.3050274166261557
  0.7763271942785094  0.2236098569361214  0.2156315582560424
  0.0099857190860461  0.3352165125336045  0.4022289613156158
  0.1092138653356645  0.5562844141255854  0.2153472070566463
  0.3274133063216266  0.3214272266053608  0.4009156847122783
  0.8834533379327613  0.4398365200847626  0.0334558005562315
  0.8865245327574123  0.4469013189484450  0.3108649347910556
  0.2274404400139219  0.7785658774129273  0.0336093645692078
  0.3277971747768996 -0.0012692314890139  0.3995850524326907
  0.8893581314017622  0.1052066332700720  0.3087324212257892
  0.2180201282171224  0.4424909166559511  0.3075122708135659
  0.5605088944268641  0.4413677879268352  0.3067202455265747
  0.4418826162743927  0.5481970601997922  0.2136405655171850
  0.9957236809750797  0.6631248394884413  0.1261755424332970
  0.5555995417881161  0.7835466296752361  0.3037371527692218
  0.4502898938774355  0.8971493351965562  0.2135202440799940
  0.6357699795697463  0.6607236639024883  0.3968224294921710
  0.3381064886824326  0.0078704190418054  0.1274496407778329
  0.5586558138934041  0.1129466464656116  0.3080203347434884
  0.6480504767648640  0.9927398059930905  0.4016434800253575
  0.8732627530923904  0.1014511780785516  0.0357530971923059
  0.0020336548892933  0.3263386488561230  0.1246722043803276
  0.2190037465794037  0.7773691304226771  0.3051331711524756
  0.1061845475272271  0.8914877921542499  0.2146042957090924
  0.8697627343513027  0.7764812266834847  0.0374676449420623
  0.8957075307449361  0.7795044771082007  0.3074876912500771
  0.8214693581129273  0.8899077005477688  0.4748109840671393
  0.7758045411404172  0.2423895675845172  0.4804729729001908
  0.0069652165930655  0.9841376521827357  0.3967879084421017
  0.4539388979082908  0.2321785303734298  0.2130673216811266
  0.6710576110402819  0.0003926619361076  0.1232072324583134
  0.3294063152885917  0.3226915197667571  0.1266248802380914
  0.6537052434289200  0.3300495450802541  0.1262608201629589
  0.6405176562280516  0.3026722718475715  0.3996689603203255
  0.7645773248545329  0.5551016419942130  0.2143133759917391
  0.0260667861522213  0.6883693307640854  0.3970081850233991
  0.7899104565259253  0.8872762461335895  0.2148537452166086
  0.8700057773735319  0.4626403550922025  0.5178138780984077
 
  0.00000000E+00  0.00000000E+00  0.00000000E+00
  0.00000000E+00  0.00000000E+00  0.00000000E+00
  0.00000000E+00  0.00000000E+00  0.00000000E+00
  0.00000000E+00  0.00000000E+00  0.00000000E+00
  0.00000000E+00  0.00000000E+00  0.00000000E+00
  0.00000000E+00  0.00000000E+00  0.00000000E+00
  0.00000000E+00  0.00000000E+00  0.00000000E+00
  0.00000000E+00  0.00000000E+00  0.00000000E+00
  0.00000000E+00  0.00000000E+00  0.00000000E+00
  0.00000000E+00  0.00000000E+00  0.00000000E+00
  0.00000000E+00  0.00000000E+00  0.00000000E+00
  0.00000000E+00  0.00000000E+00  0.00000000E+00
  0.00000000E+00  0.00000000E+00  0.00000000E+00
  0.00000000E+00  0.00000000E+00  0.00000000E+00
  0.00000000E+00  0.00000000E+00  0.00000000E+00
  0.00000000E+00  0.00000000E+00  0.00000000E+00
  0.00000000E+00  0.00000000E+00  0.00000000E+00
  0.00000000E+00  0.00000000E+00  0.00000000E+00
  0.00000000E+00  0.00000000E+00  0.00000000E+00
  0.00000000E+00  0.00000000E+00  0.00000000E+00
  0.00000000E+00  0.00000000E+00  0.00000000E+00
  0.00000000E+00  0.00000000E+00  0.00000000E+00
  0.00000000E+00  0.00000000E+00  0.00000000E+00
  0.00000000E+00  0.00000000E+00  0.00000000E+00
  0.00000000E+00  0.00000000E+00  0.00000000E+00
  0.00000000E+00  0.00000000E+00  0.00000000E+00
  0.00000000E+00  0.00000000E+00  0.00000000E+00
  0.00000000E+00  0.00000000E+00  0.00000000E+00
  0.00000000E+00  0.00000000E+00  0.00000000E+00
  0.00000000E+00  0.00000000E+00  0.00000000E+00
  0.00000000E+00  0.00000000E+00  0.00000000E+00
  0.00000000E+00  0.00000000E+00  0.00000000E+00
  0.00000000E+00  0.00000000E+00  0.00000000E+00
  0.00000000E+00  0.00000000E+00  0.00000000E+00
  0.00000000E+00  0.00000000E+00  0.00000000E+00
  0.00000000E+00  0.00000000E+00  0.00000000E+00
  0.00000000E+00  0.00000000E+00  0.00000000E+00
  0.00000000E+00  0.00000000E+00  0.00000000E+00
  0.00000000E+00  0.00000000E+00  0.00000000E+00
  0.00000000E+00  0.00000000E+00  0.00000000E+00
  0.00000000E+00  0.00000000E+00  0.00000000E+00
  0.00000000E+00  0.00000000E+00  0.00000000E+00
  0.00000000E+00  0.00000000E+00  0.00000000E+00
  0.00000000E+00  0.00000000E+00  0.00000000E+00
  0.00000000E+00  0.00000000E+00  0.00000000E+00
  0.00000000E+00  0.00000000E+00  0.00000000E+00
  0.00000000E+00  0.00000000E+00  0.00000000E+00
  0.00000000E+00  0.00000000E+00  0.00000000E+00
  0.00000000E+00  0.00000000E+00  0.00000000E+00
