step                                    
   1.00000000000000     
     8.4506998061999994    0.0000000000000000    0.0000000000000000
    -4.2253499030999997    7.3185207118999998    0.0000000000000000
     0.0000000000000000    0.0000000000000000   24.2000007629000002
   Ir   Pd   Pt   Rh   Ru   H 
    10     9    10     9    10     1
Direct
  0.9959435426670000  0.0049935064595585  0.1267517523767466
  0.1110222474008891  0.2117308126590056  0.2159766185124414
  0.5644512896292289  0.1207857318964170  0.0401066590437048
  0.2422927989015689  0.4536698720812228  0.0408268574299415
  0.5493243449880889  0.4403107672267317  0.0398493317252750
  0.3338929757658980  0.6719202612885167  0.1251115280756194
  0.3251111034690418  0.6779728157891506  0.3973585926204082
  0.5542071855003364  0.7775653954109638  0.0394997684550271
  0.6654335655318985  0.6680324662320239  0.1280626469812483
  0.8086863896587437  0.5670378784745264  0.4698592134156013
  0.2199360048785142  0.1160655406139044  0.0348870963351597
  0.2195268601116938  0.1082810618341383  0.3073762390756529
  0.7745337444427915  0.2238170275365667  0.2171204214145670
  0.0072810633228665  0.3291374314905088  0.4051463376018520
  0.1074031478842418  0.5567814279558386  0.2167969546489878
  0.3282679144142498  0.3231072284228911  0.4024047378561048
  0.8829204930073479  0.4398186663181378  0.0348447168830306
  0.8845067443136400  0.4456060839762490  0.3124952600351557
  0.2265515507742012  0.7787009614331301  0.0346693168875432
  0.3232245769445508 -0.0045969548173219  0.4013968797562478
  0.8866031657742419  0.1059973784687688  0.3094437383755623
  0.2163865347615971  0.4435970448901989  0.3085854222529767
  0.5584997486694983  0.4432155164118917  0.3076822009471050
  0.4418115982430303  0.5505432721492279  0.2146896438481574
  0.9955073015315323  0.6638918747863526  0.1274291782154213
  0.5527062171481487  0.7836969919456144  0.3052483546665094
  0.4493445201371169  0.8970873883553790  0.2150031268892875
  0.6382777675734819  0.6625651223937363  0.3974460216427966
  0.8089567705654096  0.8796836714046027  0.4825889163859564
  0.3384686494724640  0.0081928870808677  0.1286214265078185
  0.5543340031044571  0.1116202502572927  0.3094721326154682
  0.6541262580093427 -0.0024264901040262  0.4050753028475790
  0.8725370263138142  0.1014799512659020  0.0371566742642779
  0.0012618208542765  0.3269597458085416  0.1260717323299456
  0.2170692853298935  0.7767753603668242  0.3067008107098120
  0.1052387302071140  0.8929106667358149  0.2158580702661828
  0.8687471815484845  0.7770871007302192  0.0387052056682750
  0.8929757228946649  0.7786897782921318  0.3078577084073104
  0.9956356833822968  0.9819079009820564  0.3969670168072139
  0.4535679761209455  0.2338264218878908  0.2147303809434347
  0.6693899520028478  0.0010029049934392  0.1246155382068848
  0.3292666406878911  0.3225459792337544  0.1281281239346733
  0.6524983678548887  0.3301036763484697  0.1275404548504475
  0.6318358439947218  0.2991480577617071  0.3999791932155591
  0.7638019420029137  0.5560796171703334  0.2153334425003767
  0.0176478115040145  0.6897339948696598  0.3973073827082704
  0.7900867021155090  0.8891987842328940  0.2149603295042406
  0.7723945834996823  0.2626161614574752  0.4792162171554675
  0.1907344260889107  0.5614706085408157  0.4490853272026712
 
  0.00000000E+00  0.00000000E+00  0.00000000E+00
  0.00000000E+00  0.00000000E+00  0.00000000E+00
  0.00000000E+00  0.00000000E+00  0.00000000E+00
  0.00000000E+00  0.00000000E+00  0.00000000E+00
  0.00000000E+00  0.00000000E+00  0.00000000E+00
  0.00000000E+00  0.00000000E+00  0.00000000E+00
  0.00000000E+00  0.00000000E+00  0.00000000E+00
  0.00000000E+00  0.00000000E+00  0.00000000E+00
  0.00000000E+00  0.00000000E+00  0.00000000E+00
  0.00000000E+00  0.00000000E+00  0.00000000E+00
  0.00000000E+00  0.00000000E+00  0.00000000E+00
  0.00000000E+00  0.00000000E+00  0.00000000E+00
  0.00000000E+00  0.00000000E+00  0.00000000E+00
  0.00000000E+00  0.00000000E+00  0.00000000E+00
  0.00000000E+00  0.00000000E+00  0.00000000E+00
  0.00000000E+00  0.00000000E+00  0.00000000E+00
  0.00000000E+00  0.00000000E+00  0.00000000E+00
  0.00000000E+00  0.00000000E+00  0.00000000E+00
  0.00000000E+00  0.00000000E+00  0.00000000E+00
  0.00000000E+00  0.00000000E+00  0.00000000E+00
  0.00000000E+00  0.00000000E+00  0.00000000E+00
  0.00000000E+00  0.00000000E+00  0.00000000E+00
  0.00000000E+00  0.00000000E+00  0.00000000E+00
  0.00000000E+00  0.00000000E+00  0.00000000E+00
  0.00000000E+00  0.00000000E+00  0.00000000E+00
  0.00000000E+00  0.00000000E+00  0.00000000E+00
  0.00000000E+00  0.00000000E+00  0.00000000E+00
  0.00000000E+00  0.00000000E+00  0.00000000E+00
  0.00000000E+00  0.00000000E+00  0.00000000E+00
  0.00000000E+00  0.00000000E+00  0.00000000E+00
  0.00000000E+00  0.00000000E+00  0.00000000E+00
  0.00000000E+00  0.00000000E+00  0.00000000E+00
  0.00000000E+00  0.00000000E+00  0.00000000E+00
  0.00000000E+00  0.00000000E+00  0.00000000E+00
  0.00000000E+00  0.00000000E+00  0.00000000E+00
  0.00000000E+00  0.00000000E+00  0.00000000E+00
  0.00000000E+00  0.00000000E+00  0.00000000E+00
  0.00000000E+00  0.00000000E+00  0.00000000E+00
  0.00000000E+00  0.00000000E+00  0.00000000E+00
  0.00000000E+00  0.00000000E+00  0.00000000E+00
  0.00000000E+00  0.00000000E+00  0.00000000E+00
  0.00000000E+00  0.00000000E+00  0.00000000E+00
  0.00000000E+00  0.00000000E+00  0.00000000E+00
  0.00000000E+00  0.00000000E+00  0.00000000E+00
  0.00000000E+00  0.00000000E+00  0.00000000E+00
  0.00000000E+00  0.00000000E+00  0.00000000E+00
  0.00000000E+00  0.00000000E+00  0.00000000E+00
  0.00000000E+00  0.00000000E+00  0.00000000E+00
  0.00000000E+00  0.00000000E+00  0.00000000E+00
