5L_3x3_(1\1\1)                          
   1.00000000000000     
     8.4506998061999994    0.0000000000000000    0.0000000000000000
    -4.2253499030999997    7.3185207118999998    0.0000000000000000
     0.0000000000000000    0.0000000000000000   24.2000007629000002
   Ir   Pd   Pt   Rh   Ru   H 
     9     9     9     9     8     1
Direct
  0.9985892493682529  0.0048666664142317  0.1259837662918440
  0.1138977708062586  0.2109764772139999  0.2152480813167085
  0.5670472408027133  0.1203731797778096  0.0402832202227410
  0.2456493092722233  0.4546137595455585  0.0403633199405363
  0.5527430489451103  0.4396723200651765  0.0394870288429570
  0.3368547560534353  0.6702093652053668  0.1254558022679362
  0.3465801087914748  0.6785453050235075  0.3933254604090776
  0.5574706815296210  0.7796964750446866  0.0395307403272059
  0.6674502563193854  0.6679390134979023  0.1279227539373027
  0.2233945962113708  0.1162025868793982  0.0345163569420239
  0.2233468903870438  0.1082350443176683  0.3068604244623300
  0.7767518895017524  0.2242789879687429  0.2156026637454767
 -0.0000157774342856  0.3312810985316447  0.4016061928631522
  0.1095056118901138  0.5577677344251094  0.2168203389134482
  0.3310598914632663  0.3292741333202040  0.4015962866844692
  0.8853496938128791  0.4397061410866832  0.0344682507851924
  0.8912023054935022  0.4546601197239416  0.3117515094634968
  0.2304393333449987  0.7791496609260465  0.0345927877944985
  0.3303991925881257 -0.0058895760359469  0.3984482136669674
  0.8905097493372383  0.1132254295789948  0.3066363763207758
  0.2200304879194095  0.4451980261602550  0.3077498325579045
  0.5618451678508724  0.4422387101267538  0.3065765074473857
  0.4456013294035976  0.5500568655727089  0.2151976519351539
  0.9979677449649038  0.6635481916890664  0.1268477974172276
  0.5631771088879953  0.7834561220654038  0.3043675253137543
  0.4467917067273123  0.8958665327987259  0.2156568050712963
  0.6641882557081707  0.6668742437732325  0.3988285895595899
  0.3397570112478467  0.0080314982480247  0.1286113140239869
  0.5556680518288681  0.1125165212830984  0.3073511135242172
  0.6645391337318420  0.0009298923367042  0.3969376184776980
  0.8751925519960344  0.1015001436042347  0.0375724500769444
  0.0055108433995017  0.3280217997446651  0.1255982876605064
  0.2163732168067205  0.7740499633021585  0.3107671647989318
  0.1056993542952843  0.8900742124607868  0.2156573704702658
  0.8714976139827181  0.7769870458489391  0.0383122716524593
  0.9008673324910941  0.7820731430583558  0.3087186116180872
  0.9869838549403066  0.9922024229901232  0.3940366526114774
  0.4548641071519921  0.2317169946215824  0.2144536565878070
  0.6708824987297964  0.9975103777706452  0.1257982918652325
  0.3329681588807649  0.3254524803361725  0.1274641037869532
  0.6543049108491352  0.3302924300094721  0.1272010225826514
  0.6456473720837713  0.3081523072283479  0.3955351774360466
  0.7684830003098204  0.5556246111905766  0.2147101440456518
  0.7936417843350244  0.8884716851960138  0.2156354595658189
  0.7398876584250681  0.5380069214941999  0.4309294821516910
 
  0.00000000E+00  0.00000000E+00  0.00000000E+00
  0.00000000E+00  0.00000000E+00  0.00000000E+00
  0.00000000E+00  0.00000000E+00  0.00000000E+00
  0.00000000E+00  0.00000000E+00  0.00000000E+00
  0.00000000E+00  0.00000000E+00  0.00000000E+00
  0.00000000E+00  0.00000000E+00  0.00000000E+00
  0.00000000E+00  0.00000000E+00  0.00000000E+00
  0.00000000E+00  0.00000000E+00  0.00000000E+00
  0.00000000E+00  0.00000000E+00  0.00000000E+00
  0.00000000E+00  0.00000000E+00  0.00000000E+00
  0.00000000E+00  0.00000000E+00  0.00000000E+00
  0.00000000E+00  0.00000000E+00  0.00000000E+00
  0.00000000E+00  0.00000000E+00  0.00000000E+00
  0.00000000E+00  0.00000000E+00  0.00000000E+00
  0.00000000E+00  0.00000000E+00  0.00000000E+00
  0.00000000E+00  0.00000000E+00  0.00000000E+00
  0.00000000E+00  0.00000000E+00  0.00000000E+00
  0.00000000E+00  0.00000000E+00  0.00000000E+00
  0.00000000E+00  0.00000000E+00  0.00000000E+00
  0.00000000E+00  0.00000000E+00  0.00000000E+00
  0.00000000E+00  0.00000000E+00  0.00000000E+00
  0.00000000E+00  0.00000000E+00  0.00000000E+00
  0.00000000E+00  0.00000000E+00  0.00000000E+00
  0.00000000E+00  0.00000000E+00  0.00000000E+00
  0.00000000E+00  0.00000000E+00  0.00000000E+00
  0.00000000E+00  0.00000000E+00  0.00000000E+00
  0.00000000E+00  0.00000000E+00  0.00000000E+00
  0.00000000E+00  0.00000000E+00  0.00000000E+00
  0.00000000E+00  0.00000000E+00  0.00000000E+00
  0.00000000E+00  0.00000000E+00  0.00000000E+00
  0.00000000E+00  0.00000000E+00  0.00000000E+00
  0.00000000E+00  0.00000000E+00  0.00000000E+00
  0.00000000E+00  0.00000000E+00  0.00000000E+00
  0.00000000E+00  0.00000000E+00  0.00000000E+00
  0.00000000E+00  0.00000000E+00  0.00000000E+00
  0.00000000E+00  0.00000000E+00  0.00000000E+00
  0.00000000E+00  0.00000000E+00  0.00000000E+00
  0.00000000E+00  0.00000000E+00  0.00000000E+00
  0.00000000E+00  0.00000000E+00  0.00000000E+00
  0.00000000E+00  0.00000000E+00  0.00000000E+00
  0.00000000E+00  0.00000000E+00  0.00000000E+00
  0.00000000E+00  0.00000000E+00  0.00000000E+00
  0.00000000E+00  0.00000000E+00  0.00000000E+00
  0.00000000E+00  0.00000000E+00  0.00000000E+00
  0.00000000E+00  0.00000000E+00  0.00000000E+00
