5L_3x3_(1\1\1)                          
   1.00000000000000     
     8.4506998061999994    0.0000000000000000    0.0000000000000000
    -4.2253499030999997    7.3185207118999998    0.0000000000000000
     0.0000000000000000    0.0000000000000000   24.2000007629000002
   Ir   Pd   Pt   Rh   Ru
     9     9     9     8     9
Direct
  0.5568132640278592  0.1077984995872596  0.0390402291272937
  0.5448824735719477  0.1088721558457190  0.3085368026967525
  0.7783127822610956  0.2330435114279842  0.2165301085615909
  0.0001506601529554  0.3538530419188861  0.3925140800074328
  0.3256131299873431  0.3313128685567339  0.1264229584080452
  0.8789600679239231  0.4498081672325220  0.3050443447036179
  0.9971258085414371  0.6573149943606599  0.1264023756854660
  0.3251101566022465  0.6591597544597753  0.3914950482154830
  0.8855812659091989  0.7788607298257040  0.3060131180255816
  0.0095310146930948  0.0162157604290531  0.3965904908729767
  0.2262749873184574  0.1149128142371651  0.0317484365620382
  0.3403743974558214  0.0050802479653727  0.3990571771137321
  0.6667786437922845  0.0016110200500005  0.3998934126258275
  0.2327082009137576  0.4341879944735325  0.3073200635457327
  0.8905984775534826  0.4439844667350072  0.0325849267414046
  0.1048866847634981  0.8812884370292801  0.2155998889421925
  0.4528210078474603  0.8925284064057971  0.2166933607875383
  0.7732776687281178  0.8876851056835987  0.2160753316331153
  0.0029334793118756  0.0063976000944293  0.1259797371529062
  0.8867266362104975  0.1081629502980955  0.3056608546911546
  0.1064755558127216  0.5459477565155667  0.2167950658851412
 -0.0011625597769650  0.6692147226876130  0.3970609974513851
  0.3339478153735728  0.6680631306481084  0.1279064761278401
  0.5563772790274851  0.7826904160440856  0.0350406397336573
  0.6639507668158420  0.6636604930256499  0.1277262752727164
  0.6517959801492913  0.6520259220660994  0.3947215810067717
  0.8890306306688454  0.7722333687104632  0.0365850546490275
  0.3370278545104756  0.0046688622328825  0.1255320106846951
  0.4453365892316911  0.2315329907057942  0.2171171411207853
  0.8834764009410522  0.1188942610784911  0.0374553401042053
  0.5453554155273375  0.4377527995795219  0.0376517433239964
  0.5539087323888882  0.4360049020861321  0.3062998545571440
  0.6668270256643506  0.3283994180502635  0.1269034395857088
  0.2251528445553703  0.7738119886877337  0.0376015652333731
  0.2267587675022945  0.7865094093266964  0.3068800392609843
  0.2211995914205916  0.0970530295218408  0.3031274049966385
  0.1258284888333352  0.2331312819043793  0.2167825836078095
  0.6777607050802342  0.0219608656188182  0.1252220377004487
  0.9972975245408311  0.3236688615346007  0.1258543920606980
  0.2263436128097483  0.4465447841837060  0.0412114805681746
  0.4467688994650942  0.5424813527793031  0.2174199833391442
  0.6891010086679071  0.3378482350895644  0.3928215077424890
  0.7686686180429599  0.5454754398997036  0.2163423430829527
  0.5527395428898187  0.7734516735223077  0.3077496418180027
 
  0.00000000E+00  0.00000000E+00  0.00000000E+00
  0.00000000E+00  0.00000000E+00  0.00000000E+00
  0.00000000E+00  0.00000000E+00  0.00000000E+00
  0.00000000E+00  0.00000000E+00  0.00000000E+00
  0.00000000E+00  0.00000000E+00  0.00000000E+00
  0.00000000E+00  0.00000000E+00  0.00000000E+00
  0.00000000E+00  0.00000000E+00  0.00000000E+00
  0.00000000E+00  0.00000000E+00  0.00000000E+00
  0.00000000E+00  0.00000000E+00  0.00000000E+00
  0.00000000E+00  0.00000000E+00  0.00000000E+00
  0.00000000E+00  0.00000000E+00  0.00000000E+00
  0.00000000E+00  0.00000000E+00  0.00000000E+00
  0.00000000E+00  0.00000000E+00  0.00000000E+00
  0.00000000E+00  0.00000000E+00  0.00000000E+00
  0.00000000E+00  0.00000000E+00  0.00000000E+00
  0.00000000E+00  0.00000000E+00  0.00000000E+00
  0.00000000E+00  0.00000000E+00  0.00000000E+00
  0.00000000E+00  0.00000000E+00  0.00000000E+00
  0.00000000E+00  0.00000000E+00  0.00000000E+00
  0.00000000E+00  0.00000000E+00  0.00000000E+00
  0.00000000E+00  0.00000000E+00  0.00000000E+00
  0.00000000E+00  0.00000000E+00  0.00000000E+00
  0.00000000E+00  0.00000000E+00  0.00000000E+00
  0.00000000E+00  0.00000000E+00  0.00000000E+00
  0.00000000E+00  0.00000000E+00  0.00000000E+00
  0.00000000E+00  0.00000000E+00  0.00000000E+00
  0.00000000E+00  0.00000000E+00  0.00000000E+00
  0.00000000E+00  0.00000000E+00  0.00000000E+00
  0.00000000E+00  0.00000000E+00  0.00000000E+00
  0.00000000E+00  0.00000000E+00  0.00000000E+00
  0.00000000E+00  0.00000000E+00  0.00000000E+00
  0.00000000E+00  0.00000000E+00  0.00000000E+00
  0.00000000E+00  0.00000000E+00  0.00000000E+00
  0.00000000E+00  0.00000000E+00  0.00000000E+00
  0.00000000E+00  0.00000000E+00  0.00000000E+00
  0.00000000E+00  0.00000000E+00  0.00000000E+00
  0.00000000E+00  0.00000000E+00  0.00000000E+00
  0.00000000E+00  0.00000000E+00  0.00000000E+00
  0.00000000E+00  0.00000000E+00  0.00000000E+00
  0.00000000E+00  0.00000000E+00  0.00000000E+00
  0.00000000E+00  0.00000000E+00  0.00000000E+00
  0.00000000E+00  0.00000000E+00  0.00000000E+00
  0.00000000E+00  0.00000000E+00  0.00000000E+00
  0.00000000E+00  0.00000000E+00  0.00000000E+00
