total                                   
   1.00000000000000     
     8.4506998061999994    0.0000000000000000    0.0000000000000000
    -4.2253499030999997    7.3185207118999998    0.0000000000000000
     0.0000000000000000    0.0000000000000000   24.2000007629000002
   Ir   Pd   Pt   Rh   Ru   H 
     9     9     9     9     9     1
Direct
  0.9814651486012779  0.0098015138525652  0.0065430547492040
  0.4731856529773290  0.0128852580646268  0.0081529422069002
  0.0693824192741526  0.1995470913801991  0.3183845188962833
  0.6077106945728690  0.7675956464546564  0.2910593121556755
  0.4239296158611864  0.4007663857451646  0.3273297752051044
  0.8368005578866854  0.6852386914118751  0.0434030101294162
  0.2488272512041300  0.0521441281422671  0.3602038314226740
  0.4679073703570397  0.4811630344839191  0.2148369783591921
  0.8974738079997240  0.8495244662554980  0.3531163479416959
  0.6405335236143627  0.8374677838319523  0.1747158730774727
  0.9462177536271126  0.9732097787234981  0.1174552614711363
  0.5018437337078155  0.5511841237643923  0.0893138989671971
  0.1428069557344601  0.8455145594040995  0.1735872755665878
  0.7891580646993411  0.1322635181111223  0.2519764378628000
  0.3385345512120010  0.2369745273128561  0.0092205781416376
  0.6374092969616009  0.3301907658652295  0.0716838113750947
  0.1353052840846868  0.3292682498607120  0.0718971871386429
  0.2875499299944073  0.6150070950961612  0.1567405758585235
  0.9279650341923458  0.9071753128912386  0.2371039290274338
  0.1112617694247604  0.2669321231140517  0.1949458640896458
  0.9621355195022769  0.4923790274601644  0.2164813002208587
  0.0732677122089841  0.7010614484602706  0.3964781462902010
  0.6016791430991799  0.2695454671825263  0.1961849209242646
  0.2474331231537993  0.5552185689267403  0.2766015812620901
  0.2196820286530031  0.4842842262680658  0.3912329907665959
  0.4252837919653455  0.9133441988901504  0.2377544102280316
  0.4687545209262635  0.9734206822946735  0.1173634472030695
  0.1742180494888809  0.9053907126694205  0.0614667504851760
  0.9887857759092281  0.5464946926529396  0.1066129296588597
  0.6205218522189755  0.7973771134726919  0.0085331707052556
  0.2873553792565660  0.6816893307838809  0.0404734650802383
  0.7115384108681169  0.4866680225140977  0.3863383920482633
  0.3986432747059274  0.8505277324793354  0.3534049036267605
  0.9460280476030641  0.4525950045330508  0.0084247511493611
  0.8260325026583470  0.2097583249134111  0.1380814392388970
  0.5764859074051788  0.2045217036209573  0.3172764002975525
  0.7500397743983757  0.5558752343546122  0.2794382161605828
  0.7841131274735311  0.1229361549712920  0.0392389241763763
  0.5815605699923875  0.7100599301211158  0.3944098358508687
  0.2865050399501707  0.1318442109912418  0.2494189707035675
  0.1054751144103229  0.7735384128100634  0.2900765028299975
  0.9219389187380707  0.4025654584268007  0.3316843851055837
  0.3224204778115909  0.1962222858554757  0.1339981130719297
  0.7729326279388429  0.6191365989437514  0.1605009220306955
  0.7481960140279353  0.0496396244368992  0.3627086476980955
  0.6728748216483406 -0.0683681467997083  0.4269560805444946
 
  0.00000000E+00  0.00000000E+00  0.00000000E+00
  0.00000000E+00  0.00000000E+00  0.00000000E+00
  0.00000000E+00  0.00000000E+00  0.00000000E+00
  0.00000000E+00  0.00000000E+00  0.00000000E+00
  0.00000000E+00  0.00000000E+00  0.00000000E+00
  0.00000000E+00  0.00000000E+00  0.00000000E+00
  0.00000000E+00  0.00000000E+00  0.00000000E+00
  0.00000000E+00  0.00000000E+00  0.00000000E+00
  0.00000000E+00  0.00000000E+00  0.00000000E+00
  0.00000000E+00  0.00000000E+00  0.00000000E+00
  0.00000000E+00  0.00000000E+00  0.00000000E+00
  0.00000000E+00  0.00000000E+00  0.00000000E+00
  0.00000000E+00  0.00000000E+00  0.00000000E+00
  0.00000000E+00  0.00000000E+00  0.00000000E+00
  0.00000000E+00  0.00000000E+00  0.00000000E+00
  0.00000000E+00  0.00000000E+00  0.00000000E+00
  0.00000000E+00  0.00000000E+00  0.00000000E+00
  0.00000000E+00  0.00000000E+00  0.00000000E+00
  0.00000000E+00  0.00000000E+00  0.00000000E+00
  0.00000000E+00  0.00000000E+00  0.00000000E+00
  0.00000000E+00  0.00000000E+00  0.00000000E+00
  0.00000000E+00  0.00000000E+00  0.00000000E+00
  0.00000000E+00  0.00000000E+00  0.00000000E+00
  0.00000000E+00  0.00000000E+00  0.00000000E+00
  0.00000000E+00  0.00000000E+00  0.00000000E+00
  0.00000000E+00  0.00000000E+00  0.00000000E+00
  0.00000000E+00  0.00000000E+00  0.00000000E+00
  0.00000000E+00  0.00000000E+00  0.00000000E+00
  0.00000000E+00  0.00000000E+00  0.00000000E+00
  0.00000000E+00  0.00000000E+00  0.00000000E+00
  0.00000000E+00  0.00000000E+00  0.00000000E+00
  0.00000000E+00  0.00000000E+00  0.00000000E+00
  0.00000000E+00  0.00000000E+00  0.00000000E+00
  0.00000000E+00  0.00000000E+00  0.00000000E+00
  0.00000000E+00  0.00000000E+00  0.00000000E+00
  0.00000000E+00  0.00000000E+00  0.00000000E+00
  0.00000000E+00  0.00000000E+00  0.00000000E+00
  0.00000000E+00  0.00000000E+00  0.00000000E+00
  0.00000000E+00  0.00000000E+00  0.00000000E+00
  0.00000000E+00  0.00000000E+00  0.00000000E+00
  0.00000000E+00  0.00000000E+00  0.00000000E+00
  0.00000000E+00  0.00000000E+00  0.00000000E+00
  0.00000000E+00  0.00000000E+00  0.00000000E+00
  0.00000000E+00  0.00000000E+00  0.00000000E+00
  0.00000000E+00  0.00000000E+00  0.00000000E+00
  0.00000000E+00  0.00000000E+00  0.00000000E+00
