total                                   
   1.00000000000000     
     8.4506998061999994    0.0000000000000000    0.0000000000000000
    -4.2253499030999997    7.3185207118999998    0.0000000000000000
     0.0000000000000000    0.0000000000000000   24.2000007629000002
   Ir   Pd   Pt   Rh   Ru   H 
     9     9     9     9     9     1
Direct
  0.9813908323277547  0.0053356658178022  0.0061699278202385
  0.4726398724697183  0.0082935529898062  0.0079610495495155
  0.0687836837422566  0.1971785462423423  0.3189280506468445
  0.6069971148634336  0.7647957611920375  0.2896622533004722
  0.4255142116975457  0.3995571715963080  0.3266440778718336
  0.8366886441787166  0.6800733383686862  0.0425843149642797
  0.2482982610202777  0.0496790520737115  0.3599734095619528
  0.4668474511347872  0.4770389840593813  0.2140842791429035
  0.8956436148419806  0.8467507943119477  0.3525777205129286
  0.6405318375443042  0.8344404958463189  0.1747735380035685
  0.9449889399634691  0.9680720776846344  0.1169788157659620
  0.5027735349307803  0.5471494476280091  0.0891834313731719
  0.1430615441914739  0.8426302186049851  0.1734894250096821
  0.7897738775651948  0.1308967626131966  0.2522119945463724
  0.3379650914533395  0.2322290862636813  0.0086990711515135
  0.6368696318964404  0.3251233056320046  0.0710827481154579
  0.1350482897262700  0.3245680798231967  0.0716061740894316
  0.2869612809146627  0.6111756779618126  0.1561944443231849
  0.9287879826480130  0.9051651188454360  0.2372002411864648
  0.1108732190592578  0.2620022720821713  0.1945003043397437
  0.9628541008110180  0.4889012216120618  0.2159467531129431
  0.0723579082070300  0.7003589118923403  0.3964447556578369
  0.6010679300555979  0.2659709797907793  0.1957451703762006
  0.2481193804453042  0.5522068336476110  0.2759420457864877
  0.2197887320301029  0.4836391586326737  0.3904385508490151
  0.4253008050897962  0.9111037690291085  0.2376695590014711
  0.4682124965423151  0.9689476907486357  0.1170050117700731
  0.1735081472887852  0.9001407912391810  0.0612240601680072
  0.9872613429171129  0.5415274298147926  0.1061640125932269
  0.6204479468034432  0.7931290306718255  0.0081019366280553
  0.2872330090512288  0.6766784077645768  0.0402816626518981
  0.7100980118933871  0.4800773521282928  0.3872856900440178
  0.3983359559573706  0.8460136797802348  0.3535871539748678
  0.9456070106893597  0.4476246574901377  0.0079312337294687
  0.8251215779810182  0.2048377988210238  0.1381907394932572
  0.5767458698185715  0.2012791403329242  0.3171497477118714
  0.7507916411372603  0.5536811438845288  0.2777180436074865
  0.7837461939372753  0.1179557384974427  0.0391644096759193
  0.5822904038676284  0.7142497072420163  0.3952024251377453
  0.2873689806022018  0.1306253256832236  0.2503324719020531
  0.1048754582590421  0.7690214009457242  0.2900059330598750
  0.9228584340566235  0.4040002340671884  0.3308160380417622
  0.3218074082310804  0.1916088150289553  0.1332417860324770
  0.7737086519690708  0.6159391962991800  0.1610622891336609
  0.7451005604931190  0.0422287679658020  0.3623650303229909
  0.6436630776955771  0.5828174393522769  0.4392882792617946
 
  0.00000000E+00  0.00000000E+00  0.00000000E+00
  0.00000000E+00  0.00000000E+00  0.00000000E+00
  0.00000000E+00  0.00000000E+00  0.00000000E+00
  0.00000000E+00  0.00000000E+00  0.00000000E+00
  0.00000000E+00  0.00000000E+00  0.00000000E+00
  0.00000000E+00  0.00000000E+00  0.00000000E+00
  0.00000000E+00  0.00000000E+00  0.00000000E+00
  0.00000000E+00  0.00000000E+00  0.00000000E+00
  0.00000000E+00  0.00000000E+00  0.00000000E+00
  0.00000000E+00  0.00000000E+00  0.00000000E+00
  0.00000000E+00  0.00000000E+00  0.00000000E+00
  0.00000000E+00  0.00000000E+00  0.00000000E+00
  0.00000000E+00  0.00000000E+00  0.00000000E+00
  0.00000000E+00  0.00000000E+00  0.00000000E+00
  0.00000000E+00  0.00000000E+00  0.00000000E+00
  0.00000000E+00  0.00000000E+00  0.00000000E+00
  0.00000000E+00  0.00000000E+00  0.00000000E+00
  0.00000000E+00  0.00000000E+00  0.00000000E+00
  0.00000000E+00  0.00000000E+00  0.00000000E+00
  0.00000000E+00  0.00000000E+00  0.00000000E+00
  0.00000000E+00  0.00000000E+00  0.00000000E+00
  0.00000000E+00  0.00000000E+00  0.00000000E+00
  0.00000000E+00  0.00000000E+00  0.00000000E+00
  0.00000000E+00  0.00000000E+00  0.00000000E+00
  0.00000000E+00  0.00000000E+00  0.00000000E+00
  0.00000000E+00  0.00000000E+00  0.00000000E+00
  0.00000000E+00  0.00000000E+00  0.00000000E+00
  0.00000000E+00  0.00000000E+00  0.00000000E+00
  0.00000000E+00  0.00000000E+00  0.00000000E+00
  0.00000000E+00  0.00000000E+00  0.00000000E+00
  0.00000000E+00  0.00000000E+00  0.00000000E+00
  0.00000000E+00  0.00000000E+00  0.00000000E+00
  0.00000000E+00  0.00000000E+00  0.00000000E+00
  0.00000000E+00  0.00000000E+00  0.00000000E+00
  0.00000000E+00  0.00000000E+00  0.00000000E+00
  0.00000000E+00  0.00000000E+00  0.00000000E+00
  0.00000000E+00  0.00000000E+00  0.00000000E+00
  0.00000000E+00  0.00000000E+00  0.00000000E+00
  0.00000000E+00  0.00000000E+00  0.00000000E+00
  0.00000000E+00  0.00000000E+00  0.00000000E+00
  0.00000000E+00  0.00000000E+00  0.00000000E+00
  0.00000000E+00  0.00000000E+00  0.00000000E+00
  0.00000000E+00  0.00000000E+00  0.00000000E+00
  0.00000000E+00  0.00000000E+00  0.00000000E+00
  0.00000000E+00  0.00000000E+00  0.00000000E+00
  0.00000000E+00  0.00000000E+00  0.00000000E+00
