Amorphous+H                             
   1.00000000000000     
     8.4506998061999994    0.0000000000000000    0.0000000000000000
    -4.2253499030999997    7.3185207118999998    0.0000000000000000
     0.0000000000000000    0.0000000000000000   24.2000007629000002
   Ir   Pd   Pt   Rh   Ru   H 
     9     9     9     9     9     1
Direct
  0.6990906290585267  0.6497237239812650  0.0333298430935998
  0.9092101429350808  0.1207111563274132  0.3301856948266292
  0.4747010856885989  0.5737766365543615  0.4099506832457609
  0.5858369933121196  0.7915849992327905  0.3264851391738245
  0.0257607380153427  0.3545572288617522  0.2373842926288249
  0.2102045623853774  0.1713338376167632  0.2683383094369924
  0.4102817587364470  0.6062531865821869  0.0930506206406105
  0.3083573835084826  0.7520194695285879  0.3877378897970394
  0.0549644135039490  0.6412918569136029  0.3071178661685878
  0.8939029494214515  0.4702813045711617  0.0465815465063350
  0.7127455348516112  0.3017169282529418  0.2954953349315974
  0.8795629411161900  0.8212557307217996  0.2709531808266618
  0.7540949429927594  0.9446793569150259  0.0897468225399399
  0.7919518113765802  0.2407263235292374  0.1457565894099938
  0.3479459457214008  0.6749480822867464  0.2382185463940306
  0.6859118323331430  0.0109968308078632  0.2372299218766441
  0.5648749019582825  0.1246803531249875  0.0473972801967075
  0.1670475613261485  0.8640818371408105  0.2085718948870715
  0.8353462720064063  0.5282009435615017  0.2083467682078716
  0.6469046486633522  0.7099762327724558  0.1787138593929610
  0.2252621488145244  0.4405209591646758  0.3318026924478033
  0.8871969766061386  0.1730768439680199  0.0009176183969385
  0.2278816727663381  0.7940905236902009  0.0536434625971705
  0.4574187154101616  0.9072208008626740  0.1467160145589263
  0.9894095369629791  0.0551282754957827  0.1781166084265287
  0.3870740378254007  0.3242092369138535  0.0298563291004547
  0.0476093641851934  0.9772806448388252  0.0298573958946450
  0.6095406698008431  0.4226401890260349  0.1195996780552750
  0.0979001012238838  0.2828114834034418  0.0896193403763928
  0.4235836575919018  0.2680369180708913  0.3578209849577456
  0.5280909006866805  0.4872647268732875  0.2676722822378461
  0.1196263808035542  0.5673461417867691  0.1454649357045414
  0.2797232972177333  0.0897219314669929  0.1175713483140223
  0.3779741608920706  0.9757356738817188  0.2997439112142774
  0.9142859430751732  0.3890297108859664  0.3858880981895446
  0.6096476825341168  0.0707778462930387  0.3826820369334467
  0.3102001522397388  0.3707694656541232  0.1769596248130099
  0.2180313748833920  0.5067307678139319  0.0053043982784680
  0.8129850934801907  0.8748337749342894  0.4062866319653973
  0.7353448579202223  0.5787963029730006  0.3588309873249749
  0.0136852684593609  0.7103478477019081  0.4154232195022767
  0.9344984992213813  0.7435654272656094  0.1149929041534432
  0.5194247792288919  0.7903021744599751  0.0023652295733662
  0.4799697142964603  0.1949988390094910  0.2068748624122480
  0.1072385809423245  0.9803933146118738  0.3593804293693642
  0.7855392830201022  0.8303841436703544  0.4724368130202031
 
  0.00000000E+00  0.00000000E+00  0.00000000E+00
  0.00000000E+00  0.00000000E+00  0.00000000E+00
  0.00000000E+00  0.00000000E+00  0.00000000E+00
  0.00000000E+00  0.00000000E+00  0.00000000E+00
  0.00000000E+00  0.00000000E+00  0.00000000E+00
  0.00000000E+00  0.00000000E+00  0.00000000E+00
  0.00000000E+00  0.00000000E+00  0.00000000E+00
  0.00000000E+00  0.00000000E+00  0.00000000E+00
  0.00000000E+00  0.00000000E+00  0.00000000E+00
  0.00000000E+00  0.00000000E+00  0.00000000E+00
  0.00000000E+00  0.00000000E+00  0.00000000E+00
  0.00000000E+00  0.00000000E+00  0.00000000E+00
  0.00000000E+00  0.00000000E+00  0.00000000E+00
  0.00000000E+00  0.00000000E+00  0.00000000E+00
  0.00000000E+00  0.00000000E+00  0.00000000E+00
  0.00000000E+00  0.00000000E+00  0.00000000E+00
  0.00000000E+00  0.00000000E+00  0.00000000E+00
  0.00000000E+00  0.00000000E+00  0.00000000E+00
  0.00000000E+00  0.00000000E+00  0.00000000E+00
  0.00000000E+00  0.00000000E+00  0.00000000E+00
  0.00000000E+00  0.00000000E+00  0.00000000E+00
  0.00000000E+00  0.00000000E+00  0.00000000E+00
  0.00000000E+00  0.00000000E+00  0.00000000E+00
  0.00000000E+00  0.00000000E+00  0.00000000E+00
  0.00000000E+00  0.00000000E+00  0.00000000E+00
  0.00000000E+00  0.00000000E+00  0.00000000E+00
  0.00000000E+00  0.00000000E+00  0.00000000E+00
  0.00000000E+00  0.00000000E+00  0.00000000E+00
  0.00000000E+00  0.00000000E+00  0.00000000E+00
  0.00000000E+00  0.00000000E+00  0.00000000E+00
  0.00000000E+00  0.00000000E+00  0.00000000E+00
  0.00000000E+00  0.00000000E+00  0.00000000E+00
  0.00000000E+00  0.00000000E+00  0.00000000E+00
  0.00000000E+00  0.00000000E+00  0.00000000E+00
  0.00000000E+00  0.00000000E+00  0.00000000E+00
  0.00000000E+00  0.00000000E+00  0.00000000E+00
  0.00000000E+00  0.00000000E+00  0.00000000E+00
  0.00000000E+00  0.00000000E+00  0.00000000E+00
  0.00000000E+00  0.00000000E+00  0.00000000E+00
  0.00000000E+00  0.00000000E+00  0.00000000E+00
  0.00000000E+00  0.00000000E+00  0.00000000E+00
  0.00000000E+00  0.00000000E+00  0.00000000E+00
  0.00000000E+00  0.00000000E+00  0.00000000E+00
  0.00000000E+00  0.00000000E+00  0.00000000E+00
  0.00000000E+00  0.00000000E+00  0.00000000E+00
  0.00000000E+00  0.00000000E+00  0.00000000E+00
