step                                    
   1.00000000000000     
     8.4506998061999994    0.0000000000000000    0.0000000000000000
    -4.2253499030999997    7.3185207118999998    0.0000000000000000
     0.0000000000000000    0.0000000000000000   24.2000007629000002
   Ir   Pd   Pt   Rh   Ru   H 
    10     9    10    10     9     1
Direct
  0.9949145494967923  0.0037814321515656  0.1269487935733891
  0.1128832488044710  0.2108510702052113  0.2159811887272324
  0.5648185428706765  0.1210015274328552  0.0403045018262968
  0.2432209585145851  0.4533565387402708  0.0412354797647057
  0.5500749484614963  0.4396115238109563  0.0402098948289248
  0.3367535035625852  0.6718453954365594  0.1256780177482490
  0.3210001613229345  0.6743539126699276  0.3955561523706199
  0.5555821722460410  0.7770831017753748  0.0395759403471791
  0.6673598977757712  0.6696590721703676  0.1281916798353309
  0.8193818945976116  0.9187969884283451  0.4723903891500763
  0.2214943774130824  0.1159391920054751  0.0352926944583999
  0.2244203153457149  0.1100234187061196  0.3063157336871880
  0.7765694682778224  0.2222929366816040  0.2169180511338828
  0.0066257320878706  0.3479651880296721  0.4031967589701025
  0.1109757241367676  0.5570411458897304  0.2162822375730661
  0.3198061075391097  0.3228851098196873  0.4027785928728413
  0.8837079155907173  0.4402101708973520  0.0349744116462615
  0.8887243655744864  0.4487584168033105  0.3089198444485019
  0.2282353763519576  0.7789064557711981  0.0351479359627985
  0.3231743494882619 -0.0040370392251872  0.4024365313283170
  0.8889746845547832  0.1055696434284797  0.3113331746563012
  0.2174699553781639  0.4427155919829553  0.3081846897848286
  0.5604055072806370  0.4392949366790347  0.3075776196449683
  0.4441613090361907  0.5487965738051599  0.2152840987238670
  0.9967083265048751  0.6639460032707867  0.1275019039463898
  0.5561938497335474  0.7823319101541854  0.3073235072347579
  0.4523800581526226  0.8963392099835631  0.2161552768510482
  0.6368430313786283  0.6509958323681818  0.3991350628989960
  0.8086016765702992  0.5893075806363597  0.4801337392362047
  0.3395328722885839  0.0068099187138374  0.1293428349802253
  0.5583214058958473  0.1150290388674693  0.3099975475366037
  0.6352834645634502  0.9901823765784774  0.4011215520711089
  0.8735925085975280  0.1027246531632198  0.0373639215209901
  0.0019646306819309  0.3261204895676885  0.1262089656971646
  0.2178228906239677  0.7791536088716491  0.3074742096650021
  0.1063693655464072  0.8910543996024907  0.2160763592321054
  0.8702285542570728  0.7764891955071281  0.0387818835050891
  0.8950419632185354  0.7809098311223892  0.3082094783765230
  0.7825423025159161  0.1996200448587602  0.4820519426174434
  0.0081953995083707  0.9809693251520117  0.3974100663732530
  0.4541805101139581  0.2325275639081104  0.2145237386381298
  0.6703579864451041 -0.0000323826864003  0.1245601149849583
  0.3295918426959221  0.3213034241204533  0.1281013504154825
  0.6538356830001283  0.3289586353248999  0.1278229614556430
  0.6608292819227960  0.3246655135719727  0.4016544761125836
  0.7651183339515857  0.5538216600554765  0.2148939141286450
  0.0130380915629992  0.6786099642474950  0.3978277123292417
  0.7897343398341377  0.8857504793907723  0.2166386790607957
  0.4513163217272433  0.2140490375529931  0.4410143910682831
 
  0.00000000E+00  0.00000000E+00  0.00000000E+00
  0.00000000E+00  0.00000000E+00  0.00000000E+00
  0.00000000E+00  0.00000000E+00  0.00000000E+00
  0.00000000E+00  0.00000000E+00  0.00000000E+00
  0.00000000E+00  0.00000000E+00  0.00000000E+00
  0.00000000E+00  0.00000000E+00  0.00000000E+00
  0.00000000E+00  0.00000000E+00  0.00000000E+00
  0.00000000E+00  0.00000000E+00  0.00000000E+00
  0.00000000E+00  0.00000000E+00  0.00000000E+00
  0.00000000E+00  0.00000000E+00  0.00000000E+00
  0.00000000E+00  0.00000000E+00  0.00000000E+00
  0.00000000E+00  0.00000000E+00  0.00000000E+00
  0.00000000E+00  0.00000000E+00  0.00000000E+00
  0.00000000E+00  0.00000000E+00  0.00000000E+00
  0.00000000E+00  0.00000000E+00  0.00000000E+00
  0.00000000E+00  0.00000000E+00  0.00000000E+00
  0.00000000E+00  0.00000000E+00  0.00000000E+00
  0.00000000E+00  0.00000000E+00  0.00000000E+00
  0.00000000E+00  0.00000000E+00  0.00000000E+00
  0.00000000E+00  0.00000000E+00  0.00000000E+00
  0.00000000E+00  0.00000000E+00  0.00000000E+00
  0.00000000E+00  0.00000000E+00  0.00000000E+00
  0.00000000E+00  0.00000000E+00  0.00000000E+00
  0.00000000E+00  0.00000000E+00  0.00000000E+00
  0.00000000E+00  0.00000000E+00  0.00000000E+00
  0.00000000E+00  0.00000000E+00  0.00000000E+00
  0.00000000E+00  0.00000000E+00  0.00000000E+00
  0.00000000E+00  0.00000000E+00  0.00000000E+00
  0.00000000E+00  0.00000000E+00  0.00000000E+00
  0.00000000E+00  0.00000000E+00  0.00000000E+00
  0.00000000E+00  0.00000000E+00  0.00000000E+00
  0.00000000E+00  0.00000000E+00  0.00000000E+00
  0.00000000E+00  0.00000000E+00  0.00000000E+00
  0.00000000E+00  0.00000000E+00  0.00000000E+00
  0.00000000E+00  0.00000000E+00  0.00000000E+00
  0.00000000E+00  0.00000000E+00  0.00000000E+00
  0.00000000E+00  0.00000000E+00  0.00000000E+00
  0.00000000E+00  0.00000000E+00  0.00000000E+00
  0.00000000E+00  0.00000000E+00  0.00000000E+00
  0.00000000E+00  0.00000000E+00  0.00000000E+00
  0.00000000E+00  0.00000000E+00  0.00000000E+00
  0.00000000E+00  0.00000000E+00  0.00000000E+00
  0.00000000E+00  0.00000000E+00  0.00000000E+00
  0.00000000E+00  0.00000000E+00  0.00000000E+00
  0.00000000E+00  0.00000000E+00  0.00000000E+00
  0.00000000E+00  0.00000000E+00  0.00000000E+00
  0.00000000E+00  0.00000000E+00  0.00000000E+00
  0.00000000E+00  0.00000000E+00  0.00000000E+00
  0.00000000E+00  0.00000000E+00  0.00000000E+00
