step                                    
   1.00000000000000     
     8.4506998061999994    0.0000000000000000    0.0000000000000000
    -4.2253499030999997    7.3185207118999998    0.0000000000000000
     0.0000000000000000    0.0000000000000000   24.2000007629000002
   Ir   Pd   Pt   Rh   Ru   H 
    10     9    10     9    10     1
Direct
  0.9962504940628694  0.0043024480547154  0.1266554975029630
  0.1120814175189853  0.2108402975829708  0.2161350121840616
  0.5653021142226125  0.1203067974107960  0.0402209535803335
  0.2439625779692232  0.4536937818548664  0.0411014605806352
  0.5505432003508121  0.4397468393203708  0.0400381059212180
  0.3354024970538989  0.6720222212159660  0.1252279615140831
  0.3265195799853506  0.6770791253878607  0.3954562950825478
  0.5554024342658873  0.7777857809853098  0.0395941496102880
  0.6673027877775802  0.6681129579898694  0.1279792255256378
  0.8180052099387057  0.5697042691661497  0.4714209982611455
  0.2219359849762120  0.1158583375117798  0.0350179346280002
  0.2205044671595949  0.1078913814219838  0.3079545618466075
  0.7755419857014582  0.2233909035839601  0.2172421630261448
  0.0128257152147074  0.3388285259774373  0.4033155709866467
  0.1093237877282694  0.5563953881522621  0.2164044406169089
  0.3272542134693488  0.3288971179362429  0.4028744717345127
  0.8838670933305155  0.4395030852542600  0.0350550895269740
  0.8870835297039037  0.4474717312285972  0.3113237778958527
  0.2278585440553760  0.7785138430502302  0.0348390431617480
  0.3219005109732128 -0.0095757696987880  0.4022087828882079
  0.8884713626290430  0.1061013510604110  0.3092361176739740
  0.2188292367663328  0.4434754753641622  0.3080336892321734
  0.5602369008675844  0.4428508385153885  0.3080484833528487
  0.4435062891189656  0.5502162268717000  0.2145664063553727
  0.9965674806091106  0.6641138754175073  0.1274864908720205
  0.5556682388195229  0.7843700371118408  0.3059959641948335
  0.4515227711236341  0.8966831103063960  0.2152090246254223
  0.6442956445963147  0.6640486736197325  0.3981943131223817
  0.8126697460180161  0.8800167248212619  0.4838960686556753
  0.3390707398729496  0.0075522746041963  0.1290031341867350
  0.5556657868530415  0.1122530630306567  0.3103395079197767
  0.6595909155598126  0.9985739712832109  0.4058316517138059
  0.8736842691030156  0.1016100625788559  0.0372604091635147
  0.0024491124773921  0.3261645210355675  0.1262016923510003
  0.2202270650146778  0.7779750504232766  0.3064856190402696
  0.1061841074811971  0.8916904164315127  0.2162360082868159
  0.8697669848688773  0.7764491715072346  0.0386831780563918
  0.8953438453510817  0.7787340334919319  0.3076879472374793
  0.9911340991767944  0.9796054085458974  0.3967605715255943
  0.4541022428563542  0.2332344787710363  0.2151112191374911
  0.6711147473384530  0.0008783865479126  0.1248501494861684
  0.3296330456765609  0.3212084050158839  0.1282548211643714
  0.6531065671078470  0.3289640047343040  0.1277848461650182
  0.6409389594133031  0.3033587414695612  0.4009428977126139
  0.7646256096569850  0.5550146653052257  0.2153908811794380
  0.0212659157674060  0.6850178917100830  0.3977393156046077
  0.7889537142640644  0.8865196797632182  0.2156879013192010
  0.7917125112367825  0.2673854713289012  0.4798012097201189
  0.4291537019163450  0.2035045439462905  0.4412549878703665
 
  0.00000000E+00  0.00000000E+00  0.00000000E+00
  0.00000000E+00  0.00000000E+00  0.00000000E+00
  0.00000000E+00  0.00000000E+00  0.00000000E+00
  0.00000000E+00  0.00000000E+00  0.00000000E+00
  0.00000000E+00  0.00000000E+00  0.00000000E+00
  0.00000000E+00  0.00000000E+00  0.00000000E+00
  0.00000000E+00  0.00000000E+00  0.00000000E+00
  0.00000000E+00  0.00000000E+00  0.00000000E+00
  0.00000000E+00  0.00000000E+00  0.00000000E+00
  0.00000000E+00  0.00000000E+00  0.00000000E+00
  0.00000000E+00  0.00000000E+00  0.00000000E+00
  0.00000000E+00  0.00000000E+00  0.00000000E+00
  0.00000000E+00  0.00000000E+00  0.00000000E+00
  0.00000000E+00  0.00000000E+00  0.00000000E+00
  0.00000000E+00  0.00000000E+00  0.00000000E+00
  0.00000000E+00  0.00000000E+00  0.00000000E+00
  0.00000000E+00  0.00000000E+00  0.00000000E+00
  0.00000000E+00  0.00000000E+00  0.00000000E+00
  0.00000000E+00  0.00000000E+00  0.00000000E+00
  0.00000000E+00  0.00000000E+00  0.00000000E+00
  0.00000000E+00  0.00000000E+00  0.00000000E+00
  0.00000000E+00  0.00000000E+00  0.00000000E+00
  0.00000000E+00  0.00000000E+00  0.00000000E+00
  0.00000000E+00  0.00000000E+00  0.00000000E+00
  0.00000000E+00  0.00000000E+00  0.00000000E+00
  0.00000000E+00  0.00000000E+00  0.00000000E+00
  0.00000000E+00  0.00000000E+00  0.00000000E+00
  0.00000000E+00  0.00000000E+00  0.00000000E+00
  0.00000000E+00  0.00000000E+00  0.00000000E+00
  0.00000000E+00  0.00000000E+00  0.00000000E+00
  0.00000000E+00  0.00000000E+00  0.00000000E+00
  0.00000000E+00  0.00000000E+00  0.00000000E+00
  0.00000000E+00  0.00000000E+00  0.00000000E+00
  0.00000000E+00  0.00000000E+00  0.00000000E+00
  0.00000000E+00  0.00000000E+00  0.00000000E+00
  0.00000000E+00  0.00000000E+00  0.00000000E+00
  0.00000000E+00  0.00000000E+00  0.00000000E+00
  0.00000000E+00  0.00000000E+00  0.00000000E+00
  0.00000000E+00  0.00000000E+00  0.00000000E+00
  0.00000000E+00  0.00000000E+00  0.00000000E+00
  0.00000000E+00  0.00000000E+00  0.00000000E+00
  0.00000000E+00  0.00000000E+00  0.00000000E+00
  0.00000000E+00  0.00000000E+00  0.00000000E+00
  0.00000000E+00  0.00000000E+00  0.00000000E+00
  0.00000000E+00  0.00000000E+00  0.00000000E+00
  0.00000000E+00  0.00000000E+00  0.00000000E+00
  0.00000000E+00  0.00000000E+00  0.00000000E+00
  0.00000000E+00  0.00000000E+00  0.00000000E+00
  0.00000000E+00  0.00000000E+00  0.00000000E+00
