step                                    
   1.00000000000000     
     8.4506998061999994    0.0000000000000000    0.0000000000000000
    -4.2253499030999997    7.3185207118999998    0.0000000000000000
     0.0000000000000000    0.0000000000000000   24.2000007629000002
   Ir   Pd   Pt   Rh   Ru   H 
     9    10     9     9    11     1
Direct
  0.9955340869731283  0.0035551585823133  0.1268365131863051
  0.1132993143532049  0.2105976259608696  0.2157731997990481
  0.5653257528741634  0.1199320079911460  0.0406331466442321
  0.2440318094535391  0.4544169027165387  0.0407827343825544
  0.5506106951779569  0.4395563009897532  0.0402217041427050
  0.3366790877249496  0.6712627730048710  0.1254569790094849
  0.3182924074181628  0.6724775999173563  0.3959364876929329
  0.5559665270001385  0.7783140066908638  0.0396598366731124
  0.6668711977454849  0.6686508790832144  0.1286665094201783
  0.2212491917262457  0.1159908634420243  0.0351943452149825
  0.2266621712093089  0.1089188002610585  0.3056541664237699
  0.7777554934668713  0.2233455801485004  0.2166805811982909
 -0.0028874360229697  0.3352225858502508  0.4039446110983909
  0.1109677401265374  0.5566357848055933  0.2163323148787746
  0.3150872403196298  0.3165723261066226  0.4025130640894757
  0.8839112479461858  0.4392520631105848  0.0347557796304822
  0.8884842062575753  0.4498009893776496  0.3105196923583231
  0.2279625738591934  0.7783609761704041  0.0349883176128299
  0.7718400735232732  0.2388899330416249  0.4893932160850247
  0.3297602767137226 -0.0016091565050653  0.4022616356401734
  0.8901807889364335  0.1052721781767525  0.3111116834300635
  0.2161423343386926  0.4415037443278580  0.3087261548574204
  0.5587771755118289  0.4382932077382985  0.3073790026612964
  0.4440999012681029  0.5494887868424382  0.2158353882433533
  0.9962816938369624  0.6634984463424778  0.1274499204798838
  0.5550641071730014  0.7830078874432611  0.3067558928932654
  0.4520416143410695  0.8971870248556185  0.2151324328699503
  0.6206304792879291  0.6429397081226620  0.3997150635550257
  0.3380478581745640  0.0075367050829297  0.1288038111220269
  0.5614049369688242  0.1141542083466466  0.3088791300063565
  0.6427640586602055  0.9894163084736229  0.4031316970465977
  0.8733889451128400  0.1012862661040797  0.0372757075988040
  0.0027023708056125  0.3262502847040848  0.1258742931195629
  0.2226861967905885  0.7797705049871397  0.3059074010739555
  0.1061284815957869  0.8908046951108164  0.2163235140331053
  0.8699562939626072  0.7763861748674729  0.0388605332638972
  0.8928865669823483  0.7803707832370200  0.3117728006672235
  0.0199516650585438  0.9941288243911778  0.3982287144103218
  0.4546522573670930  0.2321713265427640  0.2141047647957216
  0.6718970136015271 -0.0007624141093047  0.1252180435086977
  0.3308506733962085  0.3238866881943620  0.1281723325564965
  0.6551492036721188  0.3312551656936883  0.1277362616867621
  0.6430460977601854  0.3189964844199928  0.3996400184961220
  0.7659223479419595  0.5545204935119522  0.2154185160064898
  0.0258819127712067  0.6855089834890041  0.3983472752750348
  0.7912414779574224  0.8880958902585839  0.2165713718696673
  0.8211955395608944  0.5825132204678043  0.4654832330959768
  0.8283323412379388  0.8956114069646676  0.4668292601986568
  0.5626317940811856  0.1109226246659493  0.4511509489971916
 
  0.00000000E+00  0.00000000E+00  0.00000000E+00
  0.00000000E+00  0.00000000E+00  0.00000000E+00
  0.00000000E+00  0.00000000E+00  0.00000000E+00
  0.00000000E+00  0.00000000E+00  0.00000000E+00
  0.00000000E+00  0.00000000E+00  0.00000000E+00
  0.00000000E+00  0.00000000E+00  0.00000000E+00
  0.00000000E+00  0.00000000E+00  0.00000000E+00
  0.00000000E+00  0.00000000E+00  0.00000000E+00
  0.00000000E+00  0.00000000E+00  0.00000000E+00
  0.00000000E+00  0.00000000E+00  0.00000000E+00
  0.00000000E+00  0.00000000E+00  0.00000000E+00
  0.00000000E+00  0.00000000E+00  0.00000000E+00
  0.00000000E+00  0.00000000E+00  0.00000000E+00
  0.00000000E+00  0.00000000E+00  0.00000000E+00
  0.00000000E+00  0.00000000E+00  0.00000000E+00
  0.00000000E+00  0.00000000E+00  0.00000000E+00
  0.00000000E+00  0.00000000E+00  0.00000000E+00
  0.00000000E+00  0.00000000E+00  0.00000000E+00
  0.00000000E+00  0.00000000E+00  0.00000000E+00
  0.00000000E+00  0.00000000E+00  0.00000000E+00
  0.00000000E+00  0.00000000E+00  0.00000000E+00
  0.00000000E+00  0.00000000E+00  0.00000000E+00
  0.00000000E+00  0.00000000E+00  0.00000000E+00
  0.00000000E+00  0.00000000E+00  0.00000000E+00
  0.00000000E+00  0.00000000E+00  0.00000000E+00
  0.00000000E+00  0.00000000E+00  0.00000000E+00
  0.00000000E+00  0.00000000E+00  0.00000000E+00
  0.00000000E+00  0.00000000E+00  0.00000000E+00
  0.00000000E+00  0.00000000E+00  0.00000000E+00
  0.00000000E+00  0.00000000E+00  0.00000000E+00
  0.00000000E+00  0.00000000E+00  0.00000000E+00
  0.00000000E+00  0.00000000E+00  0.00000000E+00
  0.00000000E+00  0.00000000E+00  0.00000000E+00
  0.00000000E+00  0.00000000E+00  0.00000000E+00
  0.00000000E+00  0.00000000E+00  0.00000000E+00
  0.00000000E+00  0.00000000E+00  0.00000000E+00
  0.00000000E+00  0.00000000E+00  0.00000000E+00
  0.00000000E+00  0.00000000E+00  0.00000000E+00
  0.00000000E+00  0.00000000E+00  0.00000000E+00
  0.00000000E+00  0.00000000E+00  0.00000000E+00
  0.00000000E+00  0.00000000E+00  0.00000000E+00
  0.00000000E+00  0.00000000E+00  0.00000000E+00
  0.00000000E+00  0.00000000E+00  0.00000000E+00
  0.00000000E+00  0.00000000E+00  0.00000000E+00
  0.00000000E+00  0.00000000E+00  0.00000000E+00
  0.00000000E+00  0.00000000E+00  0.00000000E+00
  0.00000000E+00  0.00000000E+00  0.00000000E+00
  0.00000000E+00  0.00000000E+00  0.00000000E+00
  0.00000000E+00  0.00000000E+00  0.00000000E+00
