step                                    
   1.00000000000000     
     8.4506998061999994    0.0000000000000000    0.0000000000000000
    -4.2253499030999997    7.3185207118999998    0.0000000000000000
     0.0000000000000000    0.0000000000000000   24.2000007629000002
   Ir   Pd   Pt   Rh   Ru   H 
    10     9    10     9    10     1
Direct
  0.9983754413993853  0.0080566959578109  0.1266748756771220
  0.1141688196863131  0.2148478217298715  0.2160989673263894
  0.5676128971796612  0.1239607094357639  0.0402813534582753
  0.2463809672732253  0.4574406610995385  0.0410973234369681
  0.5528840499732440  0.4433931068342967  0.0400298554691041
  0.3377411244445503  0.6758604308628539  0.1252420888717640
  0.3281626931167953  0.6818080796808149  0.3954548951971482
  0.5577525832481598  0.7814612734737921  0.0395855834540236
  0.6695886175841672  0.6718212789342018  0.1280120478506308
  0.8195074088738666  0.5745906952096309  0.4714225441190455
  0.2242984557804007  0.1195177981015706  0.0350277734365880
  0.2223625651503231  0.1121211770043975  0.3079458245656994
  0.7777152655056713  0.2272797861095848  0.2172454102045331
  0.0141023397288781  0.3434948782520865  0.4032876061471846
  0.1112427239496977  0.5601271977636996  0.2163351850500096
  0.3282069829284521  0.3332464849554775  0.4027849652399380
  0.8861867769091688  0.4431512324629074  0.0350455161571366
  0.8889218515825787  0.4517873993887209  0.3112904681478226
  0.2300957415284113  0.7819220942965146  0.0348577366431633
  0.3233972291684947 -0.0050300284215090  0.4022659862683876
  0.8904625874685086  0.1104703366171482  0.3092187229200413
  0.2206135227131068  0.4477794212128198  0.3080038309512175
  0.5619103729342764  0.4471300614198270  0.3080607302193256
  0.4456692150558553  0.5542670000437377  0.2145651246126369
  0.9987625160119155  0.6678759778278401  0.1275120843350772
  0.5576979926388269  0.7888264490928447  0.3060338681955782
  0.4536152697182843  0.9007205912678928  0.2152279706365897
  0.6456266552934982  0.6682941123033826  0.3982275901651694
  0.8137877049518263  0.8851861632854452  0.4837734918696041
  0.3412326769747495  0.0113134295079412  0.1290267956322036
  0.5574298090849418  0.1165855743306697  0.3103609768701376
  0.6608298842301115  0.0032586582874200  0.4057135472605802
  0.8761392210647300  0.1052938405279125  0.0372921735570389
  0.0046375575468668  0.3298382585442075  0.1261354993915972
  0.2219870696243425  0.7820268459483266  0.3064616272487740
  0.1083561584910649  0.8959230903404526  0.2162475863269638
  0.8720952760827241  0.7800912149595608  0.0387150230701271
  0.8971416944817565  0.7830363767331872  0.3077301815153816
 -0.0070015478923459  0.9844091670511244  0.3967616135723473
  0.4561357045706472  0.2370141546112380  0.2151432407231029
  0.6732907467877830  0.0044935218401146  0.1248564275554650
  0.3319437927342784  0.3250267654825674  0.1282451451705144
  0.6552597001560987  0.3329458973145856  0.1278182171025761
  0.6424836384584772  0.3082897905128792  0.4009058052467409
  0.7667081147912137  0.5588011957460712  0.2154400170945077
  0.0230202305202730  0.6897567370990045  0.3977982102956996
  0.7909195309536692  0.8903229265224124  0.2156854761323382
  0.7929888768113106  0.2718748081380937  0.4798290647992608
  0.4315612207297552  0.2082884722992590  0.4412639538084662
 
  0.00000000E+00  0.00000000E+00  0.00000000E+00
  0.00000000E+00  0.00000000E+00  0.00000000E+00
  0.00000000E+00  0.00000000E+00  0.00000000E+00
  0.00000000E+00  0.00000000E+00  0.00000000E+00
  0.00000000E+00  0.00000000E+00  0.00000000E+00
  0.00000000E+00  0.00000000E+00  0.00000000E+00
  0.00000000E+00  0.00000000E+00  0.00000000E+00
  0.00000000E+00  0.00000000E+00  0.00000000E+00
  0.00000000E+00  0.00000000E+00  0.00000000E+00
  0.00000000E+00  0.00000000E+00  0.00000000E+00
  0.00000000E+00  0.00000000E+00  0.00000000E+00
  0.00000000E+00  0.00000000E+00  0.00000000E+00
  0.00000000E+00  0.00000000E+00  0.00000000E+00
  0.00000000E+00  0.00000000E+00  0.00000000E+00
  0.00000000E+00  0.00000000E+00  0.00000000E+00
  0.00000000E+00  0.00000000E+00  0.00000000E+00
  0.00000000E+00  0.00000000E+00  0.00000000E+00
  0.00000000E+00  0.00000000E+00  0.00000000E+00
  0.00000000E+00  0.00000000E+00  0.00000000E+00
  0.00000000E+00  0.00000000E+00  0.00000000E+00
  0.00000000E+00  0.00000000E+00  0.00000000E+00
  0.00000000E+00  0.00000000E+00  0.00000000E+00
  0.00000000E+00  0.00000000E+00  0.00000000E+00
  0.00000000E+00  0.00000000E+00  0.00000000E+00
  0.00000000E+00  0.00000000E+00  0.00000000E+00
  0.00000000E+00  0.00000000E+00  0.00000000E+00
  0.00000000E+00  0.00000000E+00  0.00000000E+00
  0.00000000E+00  0.00000000E+00  0.00000000E+00
  0.00000000E+00  0.00000000E+00  0.00000000E+00
  0.00000000E+00  0.00000000E+00  0.00000000E+00
  0.00000000E+00  0.00000000E+00  0.00000000E+00
  0.00000000E+00  0.00000000E+00  0.00000000E+00
  0.00000000E+00  0.00000000E+00  0.00000000E+00
  0.00000000E+00  0.00000000E+00  0.00000000E+00
  0.00000000E+00  0.00000000E+00  0.00000000E+00
  0.00000000E+00  0.00000000E+00  0.00000000E+00
  0.00000000E+00  0.00000000E+00  0.00000000E+00
  0.00000000E+00  0.00000000E+00  0.00000000E+00
  0.00000000E+00  0.00000000E+00  0.00000000E+00
  0.00000000E+00  0.00000000E+00  0.00000000E+00
  0.00000000E+00  0.00000000E+00  0.00000000E+00
  0.00000000E+00  0.00000000E+00  0.00000000E+00
  0.00000000E+00  0.00000000E+00  0.00000000E+00
  0.00000000E+00  0.00000000E+00  0.00000000E+00
  0.00000000E+00  0.00000000E+00  0.00000000E+00
  0.00000000E+00  0.00000000E+00  0.00000000E+00
  0.00000000E+00  0.00000000E+00  0.00000000E+00
  0.00000000E+00  0.00000000E+00  0.00000000E+00
  0.00000000E+00  0.00000000E+00  0.00000000E+00
