step                                    
   1.00000000000000     
     8.4506998061999994    0.0000000000000000    0.0000000000000000
    -4.2253499030999997    7.3185207118999998    0.0000000000000000
     0.0000000000000000    0.0000000000000000   24.2000007629000002
   Ir   Pd   Pt   Rh   Ru
     9    10     9     9    11
Direct
  0.9956404229656604  0.0040385264849650  0.1268173508069080
  0.1127233857922631  0.2106427980456741  0.2157737134212863
  0.5653241263631370  0.1202387602592575  0.0405632234011086
  0.2436313552121553  0.4543616379362559  0.0406777089066912
  0.5505628045064874  0.4398367587569013  0.0400749383780486
  0.3362638417994403  0.6711303200534007  0.1254089364718231
  0.3212128470245963  0.6776744856023493  0.3961450405184339
  0.5558823601845044  0.7781347700704451  0.0395802170311876
  0.6667941205241059  0.6686452954891793  0.1286313347042784
  0.2211573838722131  0.1160648750859222  0.0350274880526032
  0.2262509815934478  0.1091718048643867  0.3055545646826340
  0.7772371152490094  0.2235232196820149  0.2164735520205649
  0.0005309290422262  0.3369387824208570  0.4042366723568735
  0.1100744058992027  0.5561977464041287  0.2165080401065312
  0.3184977838048637  0.3153304000440078  0.4026241567737847
  0.8838125196160399  0.4396006165366504  0.0346859909551458
  0.8878171208070634  0.4491699318788657  0.3112028367664420
  0.2279968568664720  0.7787215429169506  0.0349360780454244
  0.7628239784394643  0.2225968174035226  0.4861391527955208
  0.3328594537035447  0.0004863430720136  0.4018216201739917
  0.8903230858109040  0.1058483608356064  0.3112552638857498
  0.2169445482320276  0.4422004225741232  0.3092348328744333
  0.5587454450635004  0.4385255805694797  0.3071306558087410
  0.4430949113128699  0.5492204265204770  0.2157241245802552
  0.9962649463864108  0.6636472009000115  0.1274442053750636
  0.5552271681196489  0.7831293544982306  0.3062931885290495
  0.4512486253295376  0.8967962137982780  0.2148698691660935
  0.6196935226501497  0.6431398802992294  0.3991670223287751
  0.3378960324068566  0.0078605644521224  0.1285808309019598
  0.5601141842535382  0.1138821055032352  0.3078566048948008
  0.6414754676169334  0.9927306776307269  0.4011706399423464
  0.8730154287128367  0.1015618449628819  0.0371616596829869
  0.0025071431569833  0.3263388917245738  0.1257949058065158
  0.2215839418804190  0.7795103450421433  0.3058613579664290
  0.1060622678262208  0.8911697218199217  0.2163340351934176
  0.8701662561682210  0.7767020039939734  0.0388093596414966
  0.8915905237990540  0.7798228359368361  0.3120617733971473
  0.0212568914050067  0.9941980089746817  0.3982801474689009
  0.4541060717578786  0.2322937391767196  0.2139064545298940
  0.6717169010940999 -0.0007444118450403  0.1250515696914634
  0.3303106538110069  0.3239206838584675  0.1279343428404703
  0.6549625471904906  0.3318697045773391  0.1276435630589823
  0.6423928082869117  0.3131155823633394  0.3994736611332148
  0.7657262276487250  0.5546897799617422  0.2153525387431398
  0.0266980874455185  0.6862970155330549  0.3985003454028807
  0.7909000208953944  0.8883122473633909  0.2164863820849416
  0.8168471725441830  0.5756722241668911  0.4641309676770834
  0.8243150979287610  0.9018831767998085  0.4650170870244831
 
  0.00000000E+00  0.00000000E+00  0.00000000E+00
  0.00000000E+00  0.00000000E+00  0.00000000E+00
  0.00000000E+00  0.00000000E+00  0.00000000E+00
  0.00000000E+00  0.00000000E+00  0.00000000E+00
  0.00000000E+00  0.00000000E+00  0.00000000E+00
  0.00000000E+00  0.00000000E+00  0.00000000E+00
  0.00000000E+00  0.00000000E+00  0.00000000E+00
  0.00000000E+00  0.00000000E+00  0.00000000E+00
  0.00000000E+00  0.00000000E+00  0.00000000E+00
  0.00000000E+00  0.00000000E+00  0.00000000E+00
  0.00000000E+00  0.00000000E+00  0.00000000E+00
  0.00000000E+00  0.00000000E+00  0.00000000E+00
  0.00000000E+00  0.00000000E+00  0.00000000E+00
  0.00000000E+00  0.00000000E+00  0.00000000E+00
  0.00000000E+00  0.00000000E+00  0.00000000E+00
  0.00000000E+00  0.00000000E+00  0.00000000E+00
  0.00000000E+00  0.00000000E+00  0.00000000E+00
  0.00000000E+00  0.00000000E+00  0.00000000E+00
  0.00000000E+00  0.00000000E+00  0.00000000E+00
  0.00000000E+00  0.00000000E+00  0.00000000E+00
  0.00000000E+00  0.00000000E+00  0.00000000E+00
  0.00000000E+00  0.00000000E+00  0.00000000E+00
  0.00000000E+00  0.00000000E+00  0.00000000E+00
  0.00000000E+00  0.00000000E+00  0.00000000E+00
  0.00000000E+00  0.00000000E+00  0.00000000E+00
  0.00000000E+00  0.00000000E+00  0.00000000E+00
  0.00000000E+00  0.00000000E+00  0.00000000E+00
  0.00000000E+00  0.00000000E+00  0.00000000E+00
  0.00000000E+00  0.00000000E+00  0.00000000E+00
  0.00000000E+00  0.00000000E+00  0.00000000E+00
  0.00000000E+00  0.00000000E+00  0.00000000E+00
  0.00000000E+00  0.00000000E+00  0.00000000E+00
  0.00000000E+00  0.00000000E+00  0.00000000E+00
  0.00000000E+00  0.00000000E+00  0.00000000E+00
  0.00000000E+00  0.00000000E+00  0.00000000E+00
  0.00000000E+00  0.00000000E+00  0.00000000E+00
  0.00000000E+00  0.00000000E+00  0.00000000E+00
  0.00000000E+00  0.00000000E+00  0.00000000E+00
  0.00000000E+00  0.00000000E+00  0.00000000E+00
  0.00000000E+00  0.00000000E+00  0.00000000E+00
  0.00000000E+00  0.00000000E+00  0.00000000E+00
  0.00000000E+00  0.00000000E+00  0.00000000E+00
  0.00000000E+00  0.00000000E+00  0.00000000E+00
  0.00000000E+00  0.00000000E+00  0.00000000E+00
  0.00000000E+00  0.00000000E+00  0.00000000E+00
  0.00000000E+00  0.00000000E+00  0.00000000E+00
  0.00000000E+00  0.00000000E+00  0.00000000E+00
  0.00000000E+00  0.00000000E+00  0.00000000E+00
