Amorphous+H                             
   1.00000000000000     
     8.4506998061999994    0.0000000000000000    0.0000000000000000
    -4.2253499030999997    7.3185207118999998    0.0000000000000000
     0.0000000000000000    0.0000000000000000   24.2000007629000002
   Ir   Pd   Pt   Rh   Ru   H 
     9     9     9     9     9     1
Direct
  0.6949866126476736  0.6423226009468072  0.0328269807196121
  0.9044881471373167  0.1135746991481623  0.3314372423030860
  0.4747297388334731  0.5690273011241647  0.4080810697553385
  0.5766972724514132  0.7945622610117941  0.3272187025472680
  0.0230306008741809  0.3422991012628728  0.2369135767285667
  0.2057331409198950  0.1642791082782421  0.2703134999450649
  0.4066525159413972  0.5981107424996375  0.0931543166414886
  0.2764430311768036  0.7422603311988716  0.3832709023368684
  0.0522174577766162  0.6346882319811599  0.2988701811262828
  0.8903351460848417  0.4638064993907897  0.0458706312780775
  0.7164993552276745  0.2999533705359382  0.2969196809766213
  0.8677209192332643  0.8159146129289974  0.2700458471077797
  0.7500366319029497  0.9370552142827483  0.0890571514089490
  0.7885260345254070  0.2337186237053847  0.1447914463405287
  0.3454537864819643  0.6659470046513449  0.2370384939815318
  0.6840576341810766  0.0076128817253979  0.2365954431870550
  0.5626249948654199  0.1176489755495935  0.0465700520077499
  0.1636223904592164  0.8581694773862023  0.2077232585927198
  0.8296235923625445  0.5197924494684724  0.2073153659963397
  0.6421800791811817  0.7012269184121765  0.1785652178265963
  0.2236338937747185  0.4354531628090422  0.3316368469625378
  0.8880262966656537  0.1690698597751312  0.0004944092559307
  0.2252131275095504  0.7872218768071541  0.0539745299901684
  0.4551805110086631  0.9006344610314144  0.1465019868620008
  0.9859813089389509  0.0443402650807392  0.1776557180338173
  0.3828025731339162  0.3163696260820820  0.0290137198749588
  0.0456424966316572  0.9712098196269972  0.0299737108813424
  0.6042895104394661  0.4144941938825258  0.1185969436875429
  0.0945653035017092  0.2736086100040223  0.0899797272274008
  0.4225602454321195  0.2657827547456728  0.3579875014731338
  0.5272676778167369  0.4815570206337858  0.2693056477960510
  0.1158970352964288  0.5591482618804093  0.1448948031111308
  0.2800692582136411  0.0844655275333062  0.1175447193212786
  0.3841300348836248  0.9759022461964527  0.2980071898758890
  0.9354888431880266  0.4186073834706331  0.3854078419367604
  0.6078440196891671  0.0695575910310610  0.3840201216797370
  0.3051974296612828  0.3606920881288808  0.1771388625210754
  0.2138875658542751  0.4986642203766268  0.0052226942890968
  0.8068332872943342  0.8736769528204080  0.4077795048442209
  0.7481537424730981  0.5806662161878425  0.3621449931436492
 -0.0159132158711611  0.7128981615380916  0.4335311823340607
  0.9298824919210790  0.7346942480077696  0.1145028376903345
  0.5141241366978129  0.7808289475271198  0.0018332493916046
  0.4796365730480615  0.1912605062644351  0.2072529343923524
  0.0986821634817304  0.9248632872094342  0.3575542526102957
  0.8866145020511571  0.8258923008601866  0.4726349380060959
 
  0.00000000E+00  0.00000000E+00  0.00000000E+00
  0.00000000E+00  0.00000000E+00  0.00000000E+00
  0.00000000E+00  0.00000000E+00  0.00000000E+00
  0.00000000E+00  0.00000000E+00  0.00000000E+00
  0.00000000E+00  0.00000000E+00  0.00000000E+00
  0.00000000E+00  0.00000000E+00  0.00000000E+00
  0.00000000E+00  0.00000000E+00  0.00000000E+00
  0.00000000E+00  0.00000000E+00  0.00000000E+00
  0.00000000E+00  0.00000000E+00  0.00000000E+00
  0.00000000E+00  0.00000000E+00  0.00000000E+00
  0.00000000E+00  0.00000000E+00  0.00000000E+00
  0.00000000E+00  0.00000000E+00  0.00000000E+00
  0.00000000E+00  0.00000000E+00  0.00000000E+00
  0.00000000E+00  0.00000000E+00  0.00000000E+00
  0.00000000E+00  0.00000000E+00  0.00000000E+00
  0.00000000E+00  0.00000000E+00  0.00000000E+00
  0.00000000E+00  0.00000000E+00  0.00000000E+00
  0.00000000E+00  0.00000000E+00  0.00000000E+00
  0.00000000E+00  0.00000000E+00  0.00000000E+00
  0.00000000E+00  0.00000000E+00  0.00000000E+00
  0.00000000E+00  0.00000000E+00  0.00000000E+00
  0.00000000E+00  0.00000000E+00  0.00000000E+00
  0.00000000E+00  0.00000000E+00  0.00000000E+00
  0.00000000E+00  0.00000000E+00  0.00000000E+00
  0.00000000E+00  0.00000000E+00  0.00000000E+00
  0.00000000E+00  0.00000000E+00  0.00000000E+00
  0.00000000E+00  0.00000000E+00  0.00000000E+00
  0.00000000E+00  0.00000000E+00  0.00000000E+00
  0.00000000E+00  0.00000000E+00  0.00000000E+00
  0.00000000E+00  0.00000000E+00  0.00000000E+00
  0.00000000E+00  0.00000000E+00  0.00000000E+00
  0.00000000E+00  0.00000000E+00  0.00000000E+00
  0.00000000E+00  0.00000000E+00  0.00000000E+00
  0.00000000E+00  0.00000000E+00  0.00000000E+00
  0.00000000E+00  0.00000000E+00  0.00000000E+00
  0.00000000E+00  0.00000000E+00  0.00000000E+00
  0.00000000E+00  0.00000000E+00  0.00000000E+00
  0.00000000E+00  0.00000000E+00  0.00000000E+00
  0.00000000E+00  0.00000000E+00  0.00000000E+00
  0.00000000E+00  0.00000000E+00  0.00000000E+00
  0.00000000E+00  0.00000000E+00  0.00000000E+00
  0.00000000E+00  0.00000000E+00  0.00000000E+00
  0.00000000E+00  0.00000000E+00  0.00000000E+00
  0.00000000E+00  0.00000000E+00  0.00000000E+00
  0.00000000E+00  0.00000000E+00  0.00000000E+00
  0.00000000E+00  0.00000000E+00  0.00000000E+00
