5L_3x3_(1\1\1)                          
   1.00000000000000     
     8.4506998061999994    0.0000000000000000    0.0000000000000000
    -4.2253499030999997    7.3185207118999998    0.0000000000000000
     0.0000000000000000    0.0000000000000000   24.2000007629000002
   Ir   Pd   Pt   Rh   Ru   H 
     9     8     9     9     9     1
Direct
  0.9970927674083985  0.0051366685524929  0.1259984826428590
  0.1121578935941459  0.2099365126206910  0.2153094960088356
  0.5648295749065987  0.1196192272132208  0.0395550872640280
  0.2419598719076451  0.4519029322149989  0.0403788406337125
  0.5506437006752645  0.4403931429539673  0.0393781253970692
  0.3357778545509981  0.6703679404217736  0.1252126835342112
  0.3414390332248278  0.6874347797232361  0.3939623138659897
  0.5558190908455239  0.7756602741301722  0.0390226092186226
  0.6661921028229233  0.6679041635127919  0.1276937521058458
  0.2229537619295205  0.1153503855542480  0.0342741153301300
  0.2232182718986625  0.1095785736534230  0.3062055579339115
  0.7756667025564680  0.2216556586827529  0.2164634479544188
  0.1095996460944104  0.5550898624054464  0.2169986796430475
  0.3299341304626016  0.3337448065901313  0.4002940971538247
  0.8843025355921214  0.4393675683729888  0.0342008726528076
  0.8907692185972630  0.4403987404233340  0.3127535106735973
  0.2288567898628185  0.7786443514702976  0.0342488696487572
  0.3328729474865766  0.0031625917124058  0.4011325744612618
  0.8944756587997712  0.1126971406232350  0.3100216720170169
  0.2149475325419113  0.4433194225414279  0.3107102327726081
  0.5593573595889453  0.4407161541827305  0.3058258396067821
  0.4451761329567557  0.5497350095411657  0.2150641431992213
  0.9975199513815283  0.6619825843324539  0.1267520973602200
  0.5617365949714119  0.7814106762776414  0.3041042353385521
  0.4483306049297500  0.8961660845608249  0.2154460411175624
  0.6655552060028079  0.6681942266184416  0.3999400820657230
  0.3397932321238856  0.0071710058435937  0.1286207431446487
  0.5581379614721687  0.1126427905959062  0.3097608131189964
  0.6595928408916326  0.9910433087659133  0.3959592544577520
  0.8757671475683475  0.1021022472109097  0.0368014986379026
  0.0021497758580177  0.3265673287097965  0.1258228975617150
  0.2201699724477846  0.7769169123749661  0.3080204132082949
  0.1054986095050297  0.8902071482974450  0.2146697775864908
  0.8706708121119067  0.7766738713453301  0.0384848297764922
  0.8955376006407536  0.7758644744093336  0.3055021354703331
  0.9956321782748572  0.9744631377533374  0.3936585647728232
  0.4527396980109754  0.2317086514199502  0.2141157811521708
  0.6698175533746792  0.0002362938801803  0.1236121813082671
  0.3316445062354568  0.3246868907839889  0.1274374906015390
  0.6534994595800087  0.3275340002122504  0.1266520627484307
  0.6477182876087088  0.3247215193580915  0.3952194676152667
  0.7665453816839770  0.5537805892575467  0.2140999348534178
  0.0113477588249580  0.6915410863073711  0.3942595337143915
  0.7899364361458806  0.8857929974991018  0.2151385780955566
  0.7780463759424808  0.5555707532504369  0.4328936292413240
 
  0.00000000E+00  0.00000000E+00  0.00000000E+00
  0.00000000E+00  0.00000000E+00  0.00000000E+00
  0.00000000E+00  0.00000000E+00  0.00000000E+00
  0.00000000E+00  0.00000000E+00  0.00000000E+00
  0.00000000E+00  0.00000000E+00  0.00000000E+00
  0.00000000E+00  0.00000000E+00  0.00000000E+00
  0.00000000E+00  0.00000000E+00  0.00000000E+00
  0.00000000E+00  0.00000000E+00  0.00000000E+00
  0.00000000E+00  0.00000000E+00  0.00000000E+00
  0.00000000E+00  0.00000000E+00  0.00000000E+00
  0.00000000E+00  0.00000000E+00  0.00000000E+00
  0.00000000E+00  0.00000000E+00  0.00000000E+00
  0.00000000E+00  0.00000000E+00  0.00000000E+00
  0.00000000E+00  0.00000000E+00  0.00000000E+00
  0.00000000E+00  0.00000000E+00  0.00000000E+00
  0.00000000E+00  0.00000000E+00  0.00000000E+00
  0.00000000E+00  0.00000000E+00  0.00000000E+00
  0.00000000E+00  0.00000000E+00  0.00000000E+00
  0.00000000E+00  0.00000000E+00  0.00000000E+00
  0.00000000E+00  0.00000000E+00  0.00000000E+00
  0.00000000E+00  0.00000000E+00  0.00000000E+00
  0.00000000E+00  0.00000000E+00  0.00000000E+00
  0.00000000E+00  0.00000000E+00  0.00000000E+00
  0.00000000E+00  0.00000000E+00  0.00000000E+00
  0.00000000E+00  0.00000000E+00  0.00000000E+00
  0.00000000E+00  0.00000000E+00  0.00000000E+00
  0.00000000E+00  0.00000000E+00  0.00000000E+00
  0.00000000E+00  0.00000000E+00  0.00000000E+00
  0.00000000E+00  0.00000000E+00  0.00000000E+00
  0.00000000E+00  0.00000000E+00  0.00000000E+00
  0.00000000E+00  0.00000000E+00  0.00000000E+00
  0.00000000E+00  0.00000000E+00  0.00000000E+00
  0.00000000E+00  0.00000000E+00  0.00000000E+00
  0.00000000E+00  0.00000000E+00  0.00000000E+00
  0.00000000E+00  0.00000000E+00  0.00000000E+00
  0.00000000E+00  0.00000000E+00  0.00000000E+00
  0.00000000E+00  0.00000000E+00  0.00000000E+00
  0.00000000E+00  0.00000000E+00  0.00000000E+00
  0.00000000E+00  0.00000000E+00  0.00000000E+00
  0.00000000E+00  0.00000000E+00  0.00000000E+00
  0.00000000E+00  0.00000000E+00  0.00000000E+00
  0.00000000E+00  0.00000000E+00  0.00000000E+00
  0.00000000E+00  0.00000000E+00  0.00000000E+00
  0.00000000E+00  0.00000000E+00  0.00000000E+00
  0.00000000E+00  0.00000000E+00  0.00000000E+00
