step                                    
   1.00000000000000     
     8.4506998061999994    0.0000000000000000    0.0000000000000000
    -4.2253499030999997    7.3185207118999998    0.0000000000000000
     0.0000000000000000    0.0000000000000000   24.2000007629000002
   Ir   Pd   Pt   Rh   Ru   H 
    10     9    10    10     9     1
Direct
  0.9941464001549383  0.0061685955061402  0.1267372833891521
  0.1107204563209779  0.2135441394375356  0.2153390632120524
  0.5640996609073846  0.1237052847225478  0.0399167372128627
  0.2416470068786707  0.4554734418179610  0.0405549676425340
  0.5490240009810200  0.4418505512938411  0.0396726414560734
  0.3347918365083574  0.6738101030657243  0.1250799669004272
  0.3208891770658157  0.6736602228017297  0.3975185293778848
  0.5548273398112480  0.7801754842963607  0.0391459040858926
  0.6646486280845945  0.6711026673162840  0.1278713731192031
  0.8136494265081271  0.9225975544171703  0.4717822240990037
  0.2194559308608447  0.1184195174776328  0.0348909544897273
  0.2215194419732797  0.1125267402618986  0.3058516999538707
  0.7743316599462359  0.2245158127857942  0.2165445662410971
  0.0048303874917449  0.3447747832959844  0.4021953164330629
  0.1083446489871207  0.5596626937633303  0.2164742912501243
  0.3226468100878900  0.3250000218141856  0.4020563473978712
  0.8831358388233711  0.4428169039893687  0.0343973901427477
  0.8841373324862604  0.4491699097010702  0.3098885468745172
  0.2270241983399316  0.7816284581190526  0.0346777098476394
  0.3243219184204057  0.0010178143170870  0.4003262323349387
  0.8861462928341290  0.1062970316878289  0.3107537907874086
  0.2152633114971036  0.4453529665833075  0.3081056810559286
  0.5574142926303558  0.4415549984688235  0.3070645789650879
  0.4425818458940979  0.5520859815319311  0.2152234022218785
  0.9951944546169789  0.6658372424544986  0.1270915705513572
  0.5527236322612435  0.7845180297227837  0.3076216475961738
  0.4502286312901967  0.8978888044555974  0.2158159680472146
  0.6397266158826942  0.6533560904164102  0.3986455829511746
  0.8025805755952173  0.5689868559293166  0.4774012097005921
  0.3392172347073415  0.0095605314124674  0.1287494890891958
  0.5561262415114600  0.1157336150641289  0.3091272193131915
  0.6354144269109487 -0.0038909706607171  0.4007512672969695
  0.8730971277260715  0.1043484355499911  0.0369909193432204
  0.0008530130629393  0.3294037382726415  0.1258284574833251
  0.2140285998746479  0.7806512853951179  0.3068307643015095
  0.1044290021202000  0.8948382266324398  0.2150597874277522
  0.8692992325139557  0.7796377055571045  0.0384975958016095
  0.8940580150149404  0.7823687764117407  0.3080210447800918
  0.7766145042990654  0.2150426818808554  0.4805342952620439
  0.0088660124010344  0.9843249806682060  0.3982214243709448
  0.4516812115278674  0.2349174370356988  0.2138624920072410
  0.6685988532489263  0.0023285921506768  0.1241947796311371
  0.3297674676935830  0.3265995525495628  0.1277763322548371
  0.6531321211425801  0.3324080544643985  0.1274412709848879
  0.6427006468030115  0.3145357472666331  0.4009200395569663
  0.7632116815535309  0.5571733371105955  0.2147600412875661
  0.0155873369937652  0.6876415913459468  0.3972870140466108
  0.7897093524289360  0.8899972873824343  0.2156171819867647
  0.2934359343249461  0.6546503330588785  0.4629234094366323
 
  0.00000000E+00  0.00000000E+00  0.00000000E+00
  0.00000000E+00  0.00000000E+00  0.00000000E+00
  0.00000000E+00  0.00000000E+00  0.00000000E+00
  0.00000000E+00  0.00000000E+00  0.00000000E+00
  0.00000000E+00  0.00000000E+00  0.00000000E+00
  0.00000000E+00  0.00000000E+00  0.00000000E+00
  0.00000000E+00  0.00000000E+00  0.00000000E+00
  0.00000000E+00  0.00000000E+00  0.00000000E+00
  0.00000000E+00  0.00000000E+00  0.00000000E+00
  0.00000000E+00  0.00000000E+00  0.00000000E+00
  0.00000000E+00  0.00000000E+00  0.00000000E+00
  0.00000000E+00  0.00000000E+00  0.00000000E+00
  0.00000000E+00  0.00000000E+00  0.00000000E+00
  0.00000000E+00  0.00000000E+00  0.00000000E+00
  0.00000000E+00  0.00000000E+00  0.00000000E+00
  0.00000000E+00  0.00000000E+00  0.00000000E+00
  0.00000000E+00  0.00000000E+00  0.00000000E+00
  0.00000000E+00  0.00000000E+00  0.00000000E+00
  0.00000000E+00  0.00000000E+00  0.00000000E+00
  0.00000000E+00  0.00000000E+00  0.00000000E+00
  0.00000000E+00  0.00000000E+00  0.00000000E+00
  0.00000000E+00  0.00000000E+00  0.00000000E+00
  0.00000000E+00  0.00000000E+00  0.00000000E+00
  0.00000000E+00  0.00000000E+00  0.00000000E+00
  0.00000000E+00  0.00000000E+00  0.00000000E+00
  0.00000000E+00  0.00000000E+00  0.00000000E+00
  0.00000000E+00  0.00000000E+00  0.00000000E+00
  0.00000000E+00  0.00000000E+00  0.00000000E+00
  0.00000000E+00  0.00000000E+00  0.00000000E+00
  0.00000000E+00  0.00000000E+00  0.00000000E+00
  0.00000000E+00  0.00000000E+00  0.00000000E+00
  0.00000000E+00  0.00000000E+00  0.00000000E+00
  0.00000000E+00  0.00000000E+00  0.00000000E+00
  0.00000000E+00  0.00000000E+00  0.00000000E+00
  0.00000000E+00  0.00000000E+00  0.00000000E+00
  0.00000000E+00  0.00000000E+00  0.00000000E+00
  0.00000000E+00  0.00000000E+00  0.00000000E+00
  0.00000000E+00  0.00000000E+00  0.00000000E+00
  0.00000000E+00  0.00000000E+00  0.00000000E+00
  0.00000000E+00  0.00000000E+00  0.00000000E+00
  0.00000000E+00  0.00000000E+00  0.00000000E+00
  0.00000000E+00  0.00000000E+00  0.00000000E+00
  0.00000000E+00  0.00000000E+00  0.00000000E+00
  0.00000000E+00  0.00000000E+00  0.00000000E+00
  0.00000000E+00  0.00000000E+00  0.00000000E+00
  0.00000000E+00  0.00000000E+00  0.00000000E+00
  0.00000000E+00  0.00000000E+00  0.00000000E+00
  0.00000000E+00  0.00000000E+00  0.00000000E+00
  0.00000000E+00  0.00000000E+00  0.00000000E+00
