5L_3x3_(1\1\1)                          
   1.00000000000000     
     8.4506998061999994    0.0000000000000000    0.0000000000000000
    -4.2253499030999997    7.3185207118999998    0.0000000000000000
     0.0000000000000000    0.0000000000000000   24.2000007629000002
   Ir   Pd   Pt   Rh   Ru   H 
     9     9     8     9     9     1
Direct
  0.9962513893341933  0.0046966064561066  0.1260276868636636
  0.1107978706664832  0.2124040427534984  0.2156987497151408
  0.5646946473924398  0.1207847864159496  0.0396280886353027
  0.2436490778103516  0.4540394768140872  0.0410040138210060
  0.5505985494997179  0.4404295026206768  0.0392850455209337
  0.3380917779919589  0.6743235430369595  0.1253726890059080
  0.3248408212115934  0.6719912534236565  0.3940517182244793
  0.5562370130405108  0.7784676105305740  0.0385242115414081
  0.6654668720701721  0.6693582253043553  0.1271893206220055
  0.2226735668114966  0.1163047249454740  0.0345321096514943
  0.2250849150943568  0.1045547532474342  0.3111078194772792
  0.7759107126221765  0.2234235837233666  0.2154014430883634
  0.0016239472775102  0.3312730283508455  0.4036285383237030
  0.1128477619091943  0.5614967884469613  0.2159288135518777
  0.3397153284329876  0.3409247010472771  0.3996043561228343
  0.8836658680736820  0.4401660361776709  0.0346136040851745
  0.8942189619071068  0.4469859465882201  0.3057148896409054
  0.2287660577518487  0.7793640960306953  0.0342965999013069
  0.8902686320575018  0.1082988863073763  0.3071125670839270
  0.2196532502652317  0.4403554698943585  0.3070603969671543
  0.5598965814093453  0.4407580186455308  0.3057832191902162
  0.4459239150574134  0.5508215494152331  0.2147889467105657
  0.9978055773302357  0.6656060625705226  0.1264308574110538
  0.5551776943322901  0.7825045957177431  0.3054097834645601
  0.4486287348655964  0.8997790310619075  0.2166732155159437
  0.6663791832867220  0.6626617745195805  0.3991472469327126
  0.3398746446801516  0.0076723558754686  0.1289944654636399
  0.5549454377615723  0.1139551104662158  0.3138354514884320
  0.6664031223748860  0.9876561601788850  0.3979355122765197
  0.8757818245584476  0.1035858498543442  0.0370610182993670
  0.0032666756614662  0.3278125190465450  0.1254016618942343
  0.2295341990811699  0.7919002141711566  0.3121371492345623
  0.1049119623767469  0.8930504376482455  0.2152343732428731
  0.8692603791242517  0.7762120989580363  0.0378415342122317
  0.8963070520454905  0.7786985069355854  0.3053242885110098
  0.9801606311457178  0.9707186746075045  0.3941652951846083
  0.4515891991897970  0.2322396143925453  0.2149016880401683
  0.6688098031078289  0.0007011468234328  0.1237796446915131
  0.3309928922289791  0.3230225687190035  0.1277158939481133
  0.6512707549996642  0.3280811590989349  0.1271506807034532
  0.6924189866910989  0.3615468186865314  0.3943860742256185
  0.7663149189597204  0.5553447129904999  0.2134681903885068
  0.0021731791981606  0.6726623705528976  0.3927305623483283
  0.7894222575663417  0.8884917867455319  0.2149677661491731
  0.7585979821422297  0.2078050677537659  0.4328276475361471
 
  0.00000000E+00  0.00000000E+00  0.00000000E+00
  0.00000000E+00  0.00000000E+00  0.00000000E+00
  0.00000000E+00  0.00000000E+00  0.00000000E+00
  0.00000000E+00  0.00000000E+00  0.00000000E+00
  0.00000000E+00  0.00000000E+00  0.00000000E+00
  0.00000000E+00  0.00000000E+00  0.00000000E+00
  0.00000000E+00  0.00000000E+00  0.00000000E+00
  0.00000000E+00  0.00000000E+00  0.00000000E+00
  0.00000000E+00  0.00000000E+00  0.00000000E+00
  0.00000000E+00  0.00000000E+00  0.00000000E+00
  0.00000000E+00  0.00000000E+00  0.00000000E+00
  0.00000000E+00  0.00000000E+00  0.00000000E+00
  0.00000000E+00  0.00000000E+00  0.00000000E+00
  0.00000000E+00  0.00000000E+00  0.00000000E+00
  0.00000000E+00  0.00000000E+00  0.00000000E+00
  0.00000000E+00  0.00000000E+00  0.00000000E+00
  0.00000000E+00  0.00000000E+00  0.00000000E+00
  0.00000000E+00  0.00000000E+00  0.00000000E+00
  0.00000000E+00  0.00000000E+00  0.00000000E+00
  0.00000000E+00  0.00000000E+00  0.00000000E+00
  0.00000000E+00  0.00000000E+00  0.00000000E+00
  0.00000000E+00  0.00000000E+00  0.00000000E+00
  0.00000000E+00  0.00000000E+00  0.00000000E+00
  0.00000000E+00  0.00000000E+00  0.00000000E+00
  0.00000000E+00  0.00000000E+00  0.00000000E+00
  0.00000000E+00  0.00000000E+00  0.00000000E+00
  0.00000000E+00  0.00000000E+00  0.00000000E+00
  0.00000000E+00  0.00000000E+00  0.00000000E+00
  0.00000000E+00  0.00000000E+00  0.00000000E+00
  0.00000000E+00  0.00000000E+00  0.00000000E+00
  0.00000000E+00  0.00000000E+00  0.00000000E+00
  0.00000000E+00  0.00000000E+00  0.00000000E+00
  0.00000000E+00  0.00000000E+00  0.00000000E+00
  0.00000000E+00  0.00000000E+00  0.00000000E+00
  0.00000000E+00  0.00000000E+00  0.00000000E+00
  0.00000000E+00  0.00000000E+00  0.00000000E+00
  0.00000000E+00  0.00000000E+00  0.00000000E+00
  0.00000000E+00  0.00000000E+00  0.00000000E+00
  0.00000000E+00  0.00000000E+00  0.00000000E+00
  0.00000000E+00  0.00000000E+00  0.00000000E+00
  0.00000000E+00  0.00000000E+00  0.00000000E+00
  0.00000000E+00  0.00000000E+00  0.00000000E+00
  0.00000000E+00  0.00000000E+00  0.00000000E+00
  0.00000000E+00  0.00000000E+00  0.00000000E+00
  0.00000000E+00  0.00000000E+00  0.00000000E+00
