5L_3x3_(1\1\1)                          
   1.00000000000000     
     8.4506998061999994    0.0000000000000000    0.0000000000000000
    -4.2253499030999997    7.3185207118999998    0.0000000000000000
     0.0000000000000000    0.0000000000000000   24.2000007629000002
   Ir   Pd   Pt   Rh   Ru
     9     9     9     8     9
Direct
  0.9947492429450246  0.0041321130654869  0.1256409357092536
  0.1126878737511262  0.2115296591035786  0.2147702920180910
  0.5645643282443072  0.1197423122394090  0.0391361785377724
  0.2443879881745014  0.4540060427645278  0.0402526377417325
  0.5500579932840152  0.4393615101542374  0.0391069096322669
  0.3376300703049800  0.6737336115332915  0.1245486166668052
  0.3096504610362484  0.6585506357158162  0.3935518528315459
  0.5549964351388834  0.7786751485944537  0.0380390635467167
  0.6653659849249201  0.6690500828785891  0.1267341333384291
  0.2218771636569128  0.1166245072442293  0.0347132589596191
  0.2251056084767048  0.1110447784410902  0.3054314253190584
  0.7771458559681359  0.2209106208678118  0.2156485363897663
  0.9920057305886988  0.3363261403235411  0.4006709128613985
  0.1110743987770423  0.5598896317163181  0.2147084881128735
  0.3334108616680037  0.3384405482416866  0.3999254003510094
  0.8832414710834234  0.4395971441646099  0.0334568272292354
  0.8883134873460165  0.4460336632945541  0.3065829383254446
  0.2285712730090040  0.7792603558291760  0.0336158151802112
  0.3384380860449224  0.0024750653400217  0.3977192380603176
  0.8847425784958817  0.1016445878726122  0.3117638520467946
  0.2149043177440413  0.4395046583006536  0.3054072541133267
  0.5586380144179417  0.4440475593325821  0.3046390607927246
  0.4460398761892290  0.5521927044775223  0.2143252467564816
  0.9967066835443612  0.6644187389319542  0.1255448434073087
  0.5570198126233468  0.7879974780809688  0.3095681374640091
  0.4501365055854269  0.8964592247406005  0.2162889005957394
  0.6744362244745647  0.6654836930493452  0.3969427471142506
  0.3414276489729194  0.0070200349848243  0.1286217463189016
  0.5642652962043407  0.1130456294483133  0.3118466048417508
  0.8757787359006592  0.1026320915670102  0.0364844851357206
  0.0027768239220193  0.3277496866224138  0.1247679858268041
  0.2231970491016697  0.7818099876469755  0.3070449429661824
  0.1042618166119963  0.8914921616872311  0.2142197406159461
  0.8694375093974048  0.7768642800954226  0.0373408413829494
  0.8930476382246880  0.7801675973301698  0.3052972567825336
  0.0065891165275157  0.9703393875597860  0.3939088424439454
  0.4550704558338883  0.2326916405164986  0.2140761707211816
  0.6705690463536624  0.0002676432808749  0.1238188681422886
  0.3321192226867647  0.3228400221394297  0.1280754681783850
  0.6541399131127086  0.3280428845739883  0.1263241837201306
  0.6607837058235999  0.3407805491720355  0.3929954373694413
  0.7667343676784357  0.5553999794259075  0.2131165220447421
  0.0130279102733687  0.6796190892431303  0.3932215005948336
  0.7884373108300261  0.8864602363782570  0.2146343557902108
 
  0.00000000E+00  0.00000000E+00  0.00000000E+00
  0.00000000E+00  0.00000000E+00  0.00000000E+00
  0.00000000E+00  0.00000000E+00  0.00000000E+00
  0.00000000E+00  0.00000000E+00  0.00000000E+00
  0.00000000E+00  0.00000000E+00  0.00000000E+00
  0.00000000E+00  0.00000000E+00  0.00000000E+00
  0.00000000E+00  0.00000000E+00  0.00000000E+00
  0.00000000E+00  0.00000000E+00  0.00000000E+00
  0.00000000E+00  0.00000000E+00  0.00000000E+00
  0.00000000E+00  0.00000000E+00  0.00000000E+00
  0.00000000E+00  0.00000000E+00  0.00000000E+00
  0.00000000E+00  0.00000000E+00  0.00000000E+00
  0.00000000E+00  0.00000000E+00  0.00000000E+00
  0.00000000E+00  0.00000000E+00  0.00000000E+00
  0.00000000E+00  0.00000000E+00  0.00000000E+00
  0.00000000E+00  0.00000000E+00  0.00000000E+00
  0.00000000E+00  0.00000000E+00  0.00000000E+00
  0.00000000E+00  0.00000000E+00  0.00000000E+00
  0.00000000E+00  0.00000000E+00  0.00000000E+00
  0.00000000E+00  0.00000000E+00  0.00000000E+00
  0.00000000E+00  0.00000000E+00  0.00000000E+00
  0.00000000E+00  0.00000000E+00  0.00000000E+00
  0.00000000E+00  0.00000000E+00  0.00000000E+00
  0.00000000E+00  0.00000000E+00  0.00000000E+00
  0.00000000E+00  0.00000000E+00  0.00000000E+00
  0.00000000E+00  0.00000000E+00  0.00000000E+00
  0.00000000E+00  0.00000000E+00  0.00000000E+00
  0.00000000E+00  0.00000000E+00  0.00000000E+00
  0.00000000E+00  0.00000000E+00  0.00000000E+00
  0.00000000E+00  0.00000000E+00  0.00000000E+00
  0.00000000E+00  0.00000000E+00  0.00000000E+00
  0.00000000E+00  0.00000000E+00  0.00000000E+00
  0.00000000E+00  0.00000000E+00  0.00000000E+00
  0.00000000E+00  0.00000000E+00  0.00000000E+00
  0.00000000E+00  0.00000000E+00  0.00000000E+00
  0.00000000E+00  0.00000000E+00  0.00000000E+00
  0.00000000E+00  0.00000000E+00  0.00000000E+00
  0.00000000E+00  0.00000000E+00  0.00000000E+00
  0.00000000E+00  0.00000000E+00  0.00000000E+00
  0.00000000E+00  0.00000000E+00  0.00000000E+00
  0.00000000E+00  0.00000000E+00  0.00000000E+00
  0.00000000E+00  0.00000000E+00  0.00000000E+00
  0.00000000E+00  0.00000000E+00  0.00000000E+00
  0.00000000E+00  0.00000000E+00  0.00000000E+00
