5L_3x3_(1\1\1)                          
   1.00000000000000     
     8.4506998061999994    0.0000000000000000    0.0000000000000000
    -4.2253499030999997    7.3185207118999998    0.0000000000000000
     0.0000000000000000    0.0000000000000000   24.2000007629000002
   Ir   Pd   Pt   Rh   Ru
     9     9     9     9     9
Direct
  0.5566748556943486  0.1084336327469419  0.0388575817199470
  0.5475602206288854  0.1079060076013447  0.3086634011698553
  0.7774246850288246  0.2314820821207567  0.2164615288915563
  0.0035991323974890  0.3481096139679813  0.3931846774112172
  0.3258134354209711  0.3313672101224843  0.1262395282925986
  0.8761700082074740  0.4449752416383529  0.3056750559190873
 -0.0023956466077526  0.6579098801172806  0.1252585224223530
  0.3317388661056197  0.6550903189954749  0.3926128208283501
  0.8877543273164905  0.7779887700027839  0.3059512242158063
  0.0041702680579676  0.0063812254955322  0.3984046911452514
  0.2264438707024739  0.1150769896483579  0.0315506619728037
  0.3383710201973488  0.0068306485985466  0.4007459574748392
  0.6645050223228254  0.0009084305755113  0.4005618328035740
  0.2257740911444715  0.4439974777023398  0.3033709853196340
  0.8901128717326664  0.4435693070613035  0.0324026031974392
  0.1065752862720752  0.8845059122093641  0.2155820992826016
  0.4516475707683156  0.8917576451845178  0.2167148277484173
  0.7738380643934701  0.8873856946987221  0.2160441132513856
  0.0027816893016655  0.0054665718027070  0.1256983538995492
  0.8856055861855869  0.1058786873381062  0.3058130612516218
  0.1033633376960911  0.5472570769383697  0.2159211992831564
 -0.0000179268093049  0.6616219035348058  0.3969225944762143
  0.3336617072249422  0.6679101267987395  0.1275129554665582
  0.5568893285814683  0.7831132048711575  0.0349380840930502
  0.6655246910388014  0.6637066050493577  0.1274372490873907
  0.6551724243656806  0.6565417819578365  0.3960456644088844
  0.8886758803381060  0.7733968723520808  0.0355675969406156
  0.3375574205753950  0.0045780049610663  0.1256844573245473
  0.4438606065936770  0.2308012449758396  0.2174200134443093
  0.8834900844789934  0.1187428534702030  0.0372163820229730
  0.3305824412908628  0.3348857868840547  0.3942385469863624
  0.5448165661415759  0.4375295739101026  0.0375573128347941
  0.5567051769817831  0.4386365724878273  0.3059420271676986
  0.6677835763157097  0.3290271212435003  0.1271033600436204
  0.2267365976594602  0.7759840218567362  0.0374099854764860
  0.2286689289408197  0.7909675876613713  0.3075399384114746
  0.2230196530094227  0.1025889691974136  0.3055027301153973
  0.1256655762868616  0.2318947950764157  0.2161661589292464
  0.6773733521494645  0.0215504062893260  0.1249464540220938
 -0.0028583680022997  0.3235083625062888  0.1256159916685043
  0.2265263555860638  0.4459624653800414  0.0410521486892160
  0.4479661969625421  0.5434174847113004  0.2168801665801801
  0.6803899201590827  0.3365370975562039  0.3933357441267513
  0.7679773170676625  0.5461733552234677  0.2165063955097030
  0.5563142690959054  0.7786356564780427  0.3069932066729136
 
  0.00000000E+00  0.00000000E+00  0.00000000E+00
  0.00000000E+00  0.00000000E+00  0.00000000E+00
  0.00000000E+00  0.00000000E+00  0.00000000E+00
  0.00000000E+00  0.00000000E+00  0.00000000E+00
  0.00000000E+00  0.00000000E+00  0.00000000E+00
  0.00000000E+00  0.00000000E+00  0.00000000E+00
  0.00000000E+00  0.00000000E+00  0.00000000E+00
  0.00000000E+00  0.00000000E+00  0.00000000E+00
  0.00000000E+00  0.00000000E+00  0.00000000E+00
  0.00000000E+00  0.00000000E+00  0.00000000E+00
  0.00000000E+00  0.00000000E+00  0.00000000E+00
  0.00000000E+00  0.00000000E+00  0.00000000E+00
  0.00000000E+00  0.00000000E+00  0.00000000E+00
  0.00000000E+00  0.00000000E+00  0.00000000E+00
  0.00000000E+00  0.00000000E+00  0.00000000E+00
  0.00000000E+00  0.00000000E+00  0.00000000E+00
  0.00000000E+00  0.00000000E+00  0.00000000E+00
  0.00000000E+00  0.00000000E+00  0.00000000E+00
  0.00000000E+00  0.00000000E+00  0.00000000E+00
  0.00000000E+00  0.00000000E+00  0.00000000E+00
  0.00000000E+00  0.00000000E+00  0.00000000E+00
  0.00000000E+00  0.00000000E+00  0.00000000E+00
  0.00000000E+00  0.00000000E+00  0.00000000E+00
  0.00000000E+00  0.00000000E+00  0.00000000E+00
  0.00000000E+00  0.00000000E+00  0.00000000E+00
  0.00000000E+00  0.00000000E+00  0.00000000E+00
  0.00000000E+00  0.00000000E+00  0.00000000E+00
  0.00000000E+00  0.00000000E+00  0.00000000E+00
  0.00000000E+00  0.00000000E+00  0.00000000E+00
  0.00000000E+00  0.00000000E+00  0.00000000E+00
  0.00000000E+00  0.00000000E+00  0.00000000E+00
  0.00000000E+00  0.00000000E+00  0.00000000E+00
  0.00000000E+00  0.00000000E+00  0.00000000E+00
  0.00000000E+00  0.00000000E+00  0.00000000E+00
  0.00000000E+00  0.00000000E+00  0.00000000E+00
  0.00000000E+00  0.00000000E+00  0.00000000E+00
  0.00000000E+00  0.00000000E+00  0.00000000E+00
  0.00000000E+00  0.00000000E+00  0.00000000E+00
  0.00000000E+00  0.00000000E+00  0.00000000E+00
  0.00000000E+00  0.00000000E+00  0.00000000E+00
  0.00000000E+00  0.00000000E+00  0.00000000E+00
  0.00000000E+00  0.00000000E+00  0.00000000E+00
  0.00000000E+00  0.00000000E+00  0.00000000E+00
  0.00000000E+00  0.00000000E+00  0.00000000E+00
  0.00000000E+00  0.00000000E+00  0.00000000E+00
