step                                    
   1.00000000000000     
     8.4506998061999994    0.0000000000000000    0.0000000000000000
    -4.2253499030999997    7.3185207118999998    0.0000000000000000
     0.0000000000000000    0.0000000000000000   24.2000007629000002
   Ir   Pd   Pt   Rh   Ru   H 
    10     9    10     9    10     1
Direct
  0.9931684529246425  0.0063397690253780  0.1258578829360092
  0.1105177454801163  0.2135903820471680  0.2150662025960021
  0.5624650537885328  0.1220024894680473  0.0394879415898089
  0.2414182287474870  0.4556467135575229  0.0403065308590995
  0.5477697752522346  0.4415224657139805  0.0392355533713926
  0.3329239870634375  0.6739323682687643  0.1246260652566420
  0.3219133374553257  0.6790477448277126  0.3947406280340108
  0.5529395132903249  0.7794109362592702  0.0389029000046212
  0.6647401566218661  0.6700503267798240  0.1272974469790044
  0.8134974738190457  0.5738232518795778  0.4695730108678325
  0.2191842289618749  0.1178043693257621  0.0343302320927843
  0.2185544599195086  0.1102022233752286  0.3062520957327627
  0.7737551520871833  0.2258428895500130  0.2166773312609910
  0.0113124109182463  0.3396228482555180  0.4032326437610107
  0.1064525599975656  0.5585351056534001  0.2159830312642400
  0.3262207926301884  0.3251988776742533  0.4015410121366930
  0.8810416520724653  0.4413458930298362  0.0341077035029266
  0.8839145580933394  0.4489848069896141  0.3117709990352582
  0.2252375950750559  0.7802739524480186  0.0341017453495634
  0.3221131996242880 -0.0025331201009296  0.4000485238237026
  0.8867542472226806  0.1078915596382726  0.3087593969617766
  0.2157798803871833  0.4451836940163307  0.3075223024146166
  0.5575837253938696  0.4449953467707171  0.3069149890956525
  0.4412026121636660  0.5525364778359363  0.2139134983456282
  0.9940103985413339  0.6653798093090777  0.1267273618204381
  0.5528941923890359  0.7872963087469729  0.3055225645226841
  0.4491111647596632  0.8993327433462661  0.2145612989435738
  0.6377805851364683  0.6626372769515095  0.3969126298946833
  0.8104857038416176  0.8795176865410165  0.4834736330560936
  0.3366266608650909  0.0092571029527169  0.1282071899893353
  0.5548212528205377  0.1153148817140462  0.3094281198697247
  0.6538158490313014 -0.0004662693762804  0.4049908827913972
  0.8708406497949512  0.1032425825259876  0.0364484423634882
 -0.0005065688322296  0.3282654126667590  0.1253610895885867
  0.2169216905252776  0.7801930406005085  0.3056265612118265
  0.1035006880248043  0.8939133444431682  0.2151741073678520
  0.8676200557058323  0.7785123996932061  0.0380120211855980
  0.8920029390953045  0.7813365441953480  0.3071840486042714
  0.9941972113905876  0.9833265928442918  0.3959470996747015
  0.4516820177296103  0.2356827812270545  0.2141675513726424
  0.6686694393996632  0.0029009952633005  0.1241432226941412
  0.3276583231423141  0.3237835054001754  0.1274237248637636
  0.6511131162797525  0.3311548885550854  0.1269019911977668
  0.6322996014584373  0.3033471069914513  0.4003928254929914
  0.7626116117868859  0.5574096507452277  0.2146761359351367
  0.0208822800505961  0.6888931202989841  0.3970830953145742
  0.7864492946487216  0.8889288608058517  0.2150143392032509
  0.7830868531225901  0.2719786840026551  0.4780402986636152
  0.6823039763017092  0.0017691872664011  0.4803701001058325
 
  0.00000000E+00  0.00000000E+00  0.00000000E+00
  0.00000000E+00  0.00000000E+00  0.00000000E+00
  0.00000000E+00  0.00000000E+00  0.00000000E+00
  0.00000000E+00  0.00000000E+00  0.00000000E+00
  0.00000000E+00  0.00000000E+00  0.00000000E+00
  0.00000000E+00  0.00000000E+00  0.00000000E+00
  0.00000000E+00  0.00000000E+00  0.00000000E+00
  0.00000000E+00  0.00000000E+00  0.00000000E+00
  0.00000000E+00  0.00000000E+00  0.00000000E+00
  0.00000000E+00  0.00000000E+00  0.00000000E+00
  0.00000000E+00  0.00000000E+00  0.00000000E+00
  0.00000000E+00  0.00000000E+00  0.00000000E+00
  0.00000000E+00  0.00000000E+00  0.00000000E+00
  0.00000000E+00  0.00000000E+00  0.00000000E+00
  0.00000000E+00  0.00000000E+00  0.00000000E+00
  0.00000000E+00  0.00000000E+00  0.00000000E+00
  0.00000000E+00  0.00000000E+00  0.00000000E+00
  0.00000000E+00  0.00000000E+00  0.00000000E+00
  0.00000000E+00  0.00000000E+00  0.00000000E+00
  0.00000000E+00  0.00000000E+00  0.00000000E+00
  0.00000000E+00  0.00000000E+00  0.00000000E+00
  0.00000000E+00  0.00000000E+00  0.00000000E+00
  0.00000000E+00  0.00000000E+00  0.00000000E+00
  0.00000000E+00  0.00000000E+00  0.00000000E+00
  0.00000000E+00  0.00000000E+00  0.00000000E+00
  0.00000000E+00  0.00000000E+00  0.00000000E+00
  0.00000000E+00  0.00000000E+00  0.00000000E+00
  0.00000000E+00  0.00000000E+00  0.00000000E+00
  0.00000000E+00  0.00000000E+00  0.00000000E+00
  0.00000000E+00  0.00000000E+00  0.00000000E+00
  0.00000000E+00  0.00000000E+00  0.00000000E+00
  0.00000000E+00  0.00000000E+00  0.00000000E+00
  0.00000000E+00  0.00000000E+00  0.00000000E+00
  0.00000000E+00  0.00000000E+00  0.00000000E+00
  0.00000000E+00  0.00000000E+00  0.00000000E+00
  0.00000000E+00  0.00000000E+00  0.00000000E+00
  0.00000000E+00  0.00000000E+00  0.00000000E+00
  0.00000000E+00  0.00000000E+00  0.00000000E+00
  0.00000000E+00  0.00000000E+00  0.00000000E+00
  0.00000000E+00  0.00000000E+00  0.00000000E+00
  0.00000000E+00  0.00000000E+00  0.00000000E+00
  0.00000000E+00  0.00000000E+00  0.00000000E+00
  0.00000000E+00  0.00000000E+00  0.00000000E+00
  0.00000000E+00  0.00000000E+00  0.00000000E+00
  0.00000000E+00  0.00000000E+00  0.00000000E+00
  0.00000000E+00  0.00000000E+00  0.00000000E+00
  0.00000000E+00  0.00000000E+00  0.00000000E+00
  0.00000000E+00  0.00000000E+00  0.00000000E+00
  0.00000000E+00  0.00000000E+00  0.00000000E+00
