step                                    
   1.00000000000000     
     8.4506998061999994    0.0000000000000000    0.0000000000000000
    -4.2253499030999997    7.3185207118999998    0.0000000000000000
     0.0000000000000000    0.0000000000000000   24.2000007629000002
   Ir   Pd   Pt   Rh   Ru   H 
    10     9    10    10     9     1
Direct
  0.9949886848868775  0.0041507648286682  0.1254202487866322
  0.1133954372378068  0.2112351356919361  0.2144478227602238
  0.5644220440485803  0.1202652292307712  0.0388180568569482
  0.2430670208755137  0.4530323793766197  0.0395148838997878
  0.5502058750021509  0.4397765096829889  0.0386315817868069
  0.3361451805544355  0.6716992140470465  0.1239174081939250
  0.3233390631561914  0.6761956909760468  0.3937537969859802
  0.5555179601485680  0.7775082485238723  0.0380466464583583
  0.6678476122901029  0.6699156089358387  0.1266875755094466
  0.8166906525901723  0.9179635695397432  0.4709331725928859
  0.2214553408759420  0.1158998912772638  0.0336821779051490
  0.2236922722214840  0.1090014831970016  0.3047113043227485
  0.7763877422967572  0.2223157906473938  0.2155253903760723
  0.0129302594276586  0.3488372253487687  0.4016251061498048
  0.1094783649582192  0.5566334601762236  0.2151210711466028
  0.3257383642731167  0.3220105113167680  0.4005128933326846
  0.8830914869109766  0.4398438290468076  0.0332450219213242
  0.8860306797743708  0.4475538889199623  0.3094035253524758
  0.2276478504256516  0.7784719250064525  0.0334594769429671
  0.3285055940763932  0.0001025142617429  0.3995554788190385
  0.8900682192263335  0.1059090374366819  0.3102310792508616
  0.2179656120552921  0.4427891702923132  0.3066454600537776
  0.5605029486252846  0.4403824821101185  0.3055074417167358
  0.4441878222063189  0.5502287636513721  0.2137024148721732
  0.9967954657789341  0.6636188685225580  0.1258651880513190
  0.5573963089637244  0.7837720157271495  0.3054339949123587
  0.4516350015572254  0.8967086638494486  0.2143439985317219
  0.6350523415331034  0.6528520426627211  0.3977508562144206
  0.8047267290363445  0.5700589577352040  0.4746116342635378
  0.3388624513843398  0.0072031795513160  0.1276719568420170
  0.5600019922073821  0.1151593516529240  0.3081839816566812
  0.6387456978264467  0.9941531001817496  0.4003157832137620
  0.8739033676608763  0.1026818904018091  0.0357742621038873
  0.0019968050151497  0.3265546207422983  0.1247043236470643
  0.2171687357510698  0.7778507575528860  0.3053007894019756
  0.1063228915260174  0.8916381884112576  0.2143927012124911
  0.8702226886097391  0.7768707627907430  0.0372109205209592
  0.8945205678354111  0.7800841299197583  0.3074265757173607
  0.7809028667745418  0.2218899069830695  0.4792794928186749
  0.0134440556328495  0.9828872007625352  0.3973984661416806
  0.4534290356080335  0.2326136007405746  0.2128438996257982
  0.6708011016351393  0.0000318316976828  0.1230261953425093
  0.3296205215616577  0.3228552361569808  0.1265556820696112
  0.6539985915031900  0.3295744301174937  0.1262675032422365
  0.6428431077199773  0.3100132574494285  0.4000552158368330
  0.7655106255943797  0.5543288034718428  0.2134647398603312
  0.0242714849143728  0.6871399346746953  0.3964235228868690
  0.7898870569391194  0.8863222695606265  0.2151604185906884
  0.8802481452867663  0.0810443371608374  0.5194788643017965
 
  0.00000000E+00  0.00000000E+00  0.00000000E+00
  0.00000000E+00  0.00000000E+00  0.00000000E+00
  0.00000000E+00  0.00000000E+00  0.00000000E+00
  0.00000000E+00  0.00000000E+00  0.00000000E+00
  0.00000000E+00  0.00000000E+00  0.00000000E+00
  0.00000000E+00  0.00000000E+00  0.00000000E+00
  0.00000000E+00  0.00000000E+00  0.00000000E+00
  0.00000000E+00  0.00000000E+00  0.00000000E+00
  0.00000000E+00  0.00000000E+00  0.00000000E+00
  0.00000000E+00  0.00000000E+00  0.00000000E+00
  0.00000000E+00  0.00000000E+00  0.00000000E+00
  0.00000000E+00  0.00000000E+00  0.00000000E+00
  0.00000000E+00  0.00000000E+00  0.00000000E+00
  0.00000000E+00  0.00000000E+00  0.00000000E+00
  0.00000000E+00  0.00000000E+00  0.00000000E+00
  0.00000000E+00  0.00000000E+00  0.00000000E+00
  0.00000000E+00  0.00000000E+00  0.00000000E+00
  0.00000000E+00  0.00000000E+00  0.00000000E+00
  0.00000000E+00  0.00000000E+00  0.00000000E+00
  0.00000000E+00  0.00000000E+00  0.00000000E+00
  0.00000000E+00  0.00000000E+00  0.00000000E+00
  0.00000000E+00  0.00000000E+00  0.00000000E+00
  0.00000000E+00  0.00000000E+00  0.00000000E+00
  0.00000000E+00  0.00000000E+00  0.00000000E+00
  0.00000000E+00  0.00000000E+00  0.00000000E+00
  0.00000000E+00  0.00000000E+00  0.00000000E+00
  0.00000000E+00  0.00000000E+00  0.00000000E+00
  0.00000000E+00  0.00000000E+00  0.00000000E+00
  0.00000000E+00  0.00000000E+00  0.00000000E+00
  0.00000000E+00  0.00000000E+00  0.00000000E+00
  0.00000000E+00  0.00000000E+00  0.00000000E+00
  0.00000000E+00  0.00000000E+00  0.00000000E+00
  0.00000000E+00  0.00000000E+00  0.00000000E+00
  0.00000000E+00  0.00000000E+00  0.00000000E+00
  0.00000000E+00  0.00000000E+00  0.00000000E+00
  0.00000000E+00  0.00000000E+00  0.00000000E+00
  0.00000000E+00  0.00000000E+00  0.00000000E+00
  0.00000000E+00  0.00000000E+00  0.00000000E+00
  0.00000000E+00  0.00000000E+00  0.00000000E+00
  0.00000000E+00  0.00000000E+00  0.00000000E+00
  0.00000000E+00  0.00000000E+00  0.00000000E+00
  0.00000000E+00  0.00000000E+00  0.00000000E+00
  0.00000000E+00  0.00000000E+00  0.00000000E+00
  0.00000000E+00  0.00000000E+00  0.00000000E+00
  0.00000000E+00  0.00000000E+00  0.00000000E+00
  0.00000000E+00  0.00000000E+00  0.00000000E+00
  0.00000000E+00  0.00000000E+00  0.00000000E+00
  0.00000000E+00  0.00000000E+00  0.00000000E+00
  0.00000000E+00  0.00000000E+00  0.00000000E+00
