fRu2Ir1Pd1                              
   1.00000000000000     
     8.4506998061999994    0.0000000000000000    0.0000000000000000
    -4.2253499030999997    7.3185207118999998    0.0000000000000000
     0.0000000000000000    0.0000000000000000   24.2000007629000002
   Ir   Pd   Pt   Rh   Ru   H 
     9     9     9     9     9     1
Direct
  0.9972647392052112  0.0050592790577492  0.1260289657063119
  0.1110833405293902  0.2105413928724976  0.2153787323205186
  0.5651363409891398  0.1204720942406115  0.0396480386214511
  0.2425023463163700  0.4527764635269789  0.0402785403743596
  0.5502028869749785  0.4397346617371693  0.0391346058974260
  0.3366807187928211  0.6713953658375140  0.1250236795987482
  0.3328569701993084  0.6794056904840234  0.3963317530679308
  0.5552762140880686  0.7773915156574330  0.0385063743281752
  0.6652332243891252  0.6684054053992652  0.1274143803037623
  0.2215807087149835  0.1153549408935977  0.0344001672776085
  0.2224937856651988  0.1095289919964481  0.3068455441576349
  0.7748401032676059  0.2222118089659910  0.2156645282653381
  0.9888246350291892  0.3293324450113104  0.4036886067760878
  0.1110536912486602  0.5585674444494700  0.2161010571148927
  0.3362528779473185  0.3352055672077110  0.4011871340576325
  0.8840882251603295  0.4398368709683136  0.0340991365877568
  0.8891837728202787  0.4477911847584025  0.3081466295310564
  0.2281695816551388  0.7786375573724720  0.0341691968656870
  0.3326043041310708  0.0038639695452781  0.4006795239059587
  0.8900220267707759  0.1097870611112068  0.3083958633062112
  0.2188582321045892  0.4434414426770953  0.3079754264640462
  0.5587315952326097  0.4410498208914542  0.3057604616678761
  0.4460215667052535  0.5511831019508419  0.2151303147621255
  0.9967657550343928  0.6635207645729205  0.1264443971380723
  0.5562268639045969  0.7804973791763719  0.3050736212037758
  0.4476542605887298  0.8973356196348239  0.2159510653438083
  0.6705893846293952  0.6630898029095036  0.3984437743925988
  0.3399733954874860  0.0076436084944842  0.1286562523329157
  0.5559502278226524  0.1127510141540040  0.3104635868413883
  0.6629740433593094  0.9922736862139546  0.3971727101185549
  0.8747043344555486  0.1018065518442455  0.0367945703766089
  0.0030517077033478  0.3277584048236985  0.1254224638906606
  0.2205004982832598  0.7797138453630200  0.3089712480383294
  0.1042649271757139  0.8905066254959029  0.2151013943511955
  0.8698568402247657  0.7766727574571641  0.0380528882697156
  0.8940194510837804  0.7791638609944189  0.3058617484417797
  0.9886387225865895  0.9750500914900632  0.3947370228651750
  0.4527147120499653  0.2324370566115895  0.2142630187122549
  0.6687581949373558  0.9988130665873458  0.1237823209075350
  0.3320255366577733  0.3252566319061009  0.1274950467141881
  0.6525792254137666  0.3289887771533098  0.1266938242953052
  0.6583695694218950  0.3296452851154361  0.3943669446353368
  0.7665528063451541  0.5556376327430339  0.2139550946188822
  0.0066031361378387  0.6849602599056090  0.3942725275892863
  0.7920962957801768  0.8899932364051980  0.2147073465365765
  0.1381179459790704  0.5693095393349631  0.4371484804274604
 
  0.00000000E+00  0.00000000E+00  0.00000000E+00
  0.00000000E+00  0.00000000E+00  0.00000000E+00
  0.00000000E+00  0.00000000E+00  0.00000000E+00
  0.00000000E+00  0.00000000E+00  0.00000000E+00
  0.00000000E+00  0.00000000E+00  0.00000000E+00
  0.00000000E+00  0.00000000E+00  0.00000000E+00
  0.00000000E+00  0.00000000E+00  0.00000000E+00
  0.00000000E+00  0.00000000E+00  0.00000000E+00
  0.00000000E+00  0.00000000E+00  0.00000000E+00
  0.00000000E+00  0.00000000E+00  0.00000000E+00
  0.00000000E+00  0.00000000E+00  0.00000000E+00
  0.00000000E+00  0.00000000E+00  0.00000000E+00
  0.00000000E+00  0.00000000E+00  0.00000000E+00
  0.00000000E+00  0.00000000E+00  0.00000000E+00
  0.00000000E+00  0.00000000E+00  0.00000000E+00
  0.00000000E+00  0.00000000E+00  0.00000000E+00
  0.00000000E+00  0.00000000E+00  0.00000000E+00
  0.00000000E+00  0.00000000E+00  0.00000000E+00
  0.00000000E+00  0.00000000E+00  0.00000000E+00
  0.00000000E+00  0.00000000E+00  0.00000000E+00
  0.00000000E+00  0.00000000E+00  0.00000000E+00
  0.00000000E+00  0.00000000E+00  0.00000000E+00
  0.00000000E+00  0.00000000E+00  0.00000000E+00
  0.00000000E+00  0.00000000E+00  0.00000000E+00
  0.00000000E+00  0.00000000E+00  0.00000000E+00
  0.00000000E+00  0.00000000E+00  0.00000000E+00
  0.00000000E+00  0.00000000E+00  0.00000000E+00
  0.00000000E+00  0.00000000E+00  0.00000000E+00
  0.00000000E+00  0.00000000E+00  0.00000000E+00
  0.00000000E+00  0.00000000E+00  0.00000000E+00
  0.00000000E+00  0.00000000E+00  0.00000000E+00
  0.00000000E+00  0.00000000E+00  0.00000000E+00
  0.00000000E+00  0.00000000E+00  0.00000000E+00
  0.00000000E+00  0.00000000E+00  0.00000000E+00
  0.00000000E+00  0.00000000E+00  0.00000000E+00
  0.00000000E+00  0.00000000E+00  0.00000000E+00
  0.00000000E+00  0.00000000E+00  0.00000000E+00
  0.00000000E+00  0.00000000E+00  0.00000000E+00
  0.00000000E+00  0.00000000E+00  0.00000000E+00
  0.00000000E+00  0.00000000E+00  0.00000000E+00
  0.00000000E+00  0.00000000E+00  0.00000000E+00
  0.00000000E+00  0.00000000E+00  0.00000000E+00
  0.00000000E+00  0.00000000E+00  0.00000000E+00
  0.00000000E+00  0.00000000E+00  0.00000000E+00
  0.00000000E+00  0.00000000E+00  0.00000000E+00
  0.00000000E+00  0.00000000E+00  0.00000000E+00
