5L_3x3_(1\1\1)                          
   1.00000000000000     
     8.4506998061999994    0.0000000000000000    0.0000000000000000
    -4.2253499030999997    7.3185207118999998    0.0000000000000000
     0.0000000000000000    0.0000000000000000   24.2000007629000002
   Ir   Pd   Pt   Rh   Ru   H 
     9     8     9     9     9     1
Direct
  0.9974633117194105  0.0050066650489671  0.1261691999912032
  0.1125027923707726  0.2096460913704257  0.2157762157212748
  0.5650913625873507  0.1193431968359008  0.0397952580143122
  0.2421689372490707  0.4515090614921189  0.0407182421977995
  0.5508647500961066  0.4399900129464696  0.0395571098311792
  0.3362818842677244  0.6704950414406131  0.1255402051020134
  0.3411333646193295  0.6859826682335520  0.3940926746008164
  0.5557788817644853  0.7755335022035279  0.0391487957040537
  0.6666857155464997  0.6678040768538842  0.1277760593882077
  0.2230505415696344  0.1151063615569475  0.0344392420463652
  0.2242022424346239  0.1096819466903724  0.3071328966690715
  0.7756486721228346  0.2208072095984980  0.2166455391834906
  0.1103209870173030  0.5551869077742371  0.2170368018952901
  0.3339559762278363  0.3371016139659841  0.4007734565243380
  0.8843929926609549  0.4392327134862245  0.0343521421844178
  0.8906841021237558  0.4402244396417103  0.3113298656995787
  0.2289423119515080  0.7782583157911508  0.0344457744559194
  0.3360259959154614  0.0043670236985520  0.4017944797404659
  0.8954513554288660  0.1115749025033001  0.3104952921880915
  0.2154532584867862  0.4423401378687588  0.3107104325425434
  0.5602928203145167  0.4414268997151764  0.3054876062686537
  0.4456985856308653  0.5492872555411712  0.2151379476233926
  0.9978548323787912  0.6620624151632273  0.1268041582810067
  0.5614992181354734  0.7816962049821237  0.3038045587996022
  0.4484326543136901  0.8971530960738752  0.2158757606665378
  0.6679514670314860  0.6652412262690004  0.3986379549607558
  0.3398249191698860  0.0064614295010230  0.1288020613004836
  0.5597648233101791  0.1128830639842044  0.3107369707855274
  0.6586057964290754  0.9872022286455936  0.3962911558249404
  0.8757427042093179  0.1019765447565313  0.0370064860855477
  0.0024160142402068  0.3262523868671556  0.1260926161432830
  0.2209235864282361  0.7774252887594438  0.3084530200332942
  0.1051190398651618  0.8899013848458422  0.2150016956290357
  0.8707053981464161  0.7764514010394128  0.0386284519734801
  0.8958133098025988  0.7752282842799262  0.3056601018631541
  0.9934296219197366  0.9679410316882739  0.3945468735049346
  0.4523939105836133  0.2312324400420131  0.2142792823617184
  0.6702948316842881 -0.0002319339705096  0.1238868159115898
  0.3316008666206883  0.3239962218946926  0.1276061200251082
  0.6534686557385526  0.3267878906339115  0.1269144088325843
  0.6478984509054894  0.3293421701098732  0.3954660501297376
  0.7667056812583197  0.5535056440909362  0.2140671191511608
  0.0139089793539680  0.6878085182745294  0.3944120474682303
  0.7900715382936169  0.8854945032086806  0.2152286575760776
  0.8682233849666683  0.4620669727644454  0.4251194417861598
 
  0.00000000E+00  0.00000000E+00  0.00000000E+00
  0.00000000E+00  0.00000000E+00  0.00000000E+00
  0.00000000E+00  0.00000000E+00  0.00000000E+00
  0.00000000E+00  0.00000000E+00  0.00000000E+00
  0.00000000E+00  0.00000000E+00  0.00000000E+00
  0.00000000E+00  0.00000000E+00  0.00000000E+00
  0.00000000E+00  0.00000000E+00  0.00000000E+00
  0.00000000E+00  0.00000000E+00  0.00000000E+00
  0.00000000E+00  0.00000000E+00  0.00000000E+00
  0.00000000E+00  0.00000000E+00  0.00000000E+00
  0.00000000E+00  0.00000000E+00  0.00000000E+00
  0.00000000E+00  0.00000000E+00  0.00000000E+00
  0.00000000E+00  0.00000000E+00  0.00000000E+00
  0.00000000E+00  0.00000000E+00  0.00000000E+00
  0.00000000E+00  0.00000000E+00  0.00000000E+00
  0.00000000E+00  0.00000000E+00  0.00000000E+00
  0.00000000E+00  0.00000000E+00  0.00000000E+00
  0.00000000E+00  0.00000000E+00  0.00000000E+00
  0.00000000E+00  0.00000000E+00  0.00000000E+00
  0.00000000E+00  0.00000000E+00  0.00000000E+00
  0.00000000E+00  0.00000000E+00  0.00000000E+00
  0.00000000E+00  0.00000000E+00  0.00000000E+00
  0.00000000E+00  0.00000000E+00  0.00000000E+00
  0.00000000E+00  0.00000000E+00  0.00000000E+00
  0.00000000E+00  0.00000000E+00  0.00000000E+00
  0.00000000E+00  0.00000000E+00  0.00000000E+00
  0.00000000E+00  0.00000000E+00  0.00000000E+00
  0.00000000E+00  0.00000000E+00  0.00000000E+00
  0.00000000E+00  0.00000000E+00  0.00000000E+00
  0.00000000E+00  0.00000000E+00  0.00000000E+00
  0.00000000E+00  0.00000000E+00  0.00000000E+00
  0.00000000E+00  0.00000000E+00  0.00000000E+00
  0.00000000E+00  0.00000000E+00  0.00000000E+00
  0.00000000E+00  0.00000000E+00  0.00000000E+00
  0.00000000E+00  0.00000000E+00  0.00000000E+00
  0.00000000E+00  0.00000000E+00  0.00000000E+00
  0.00000000E+00  0.00000000E+00  0.00000000E+00
  0.00000000E+00  0.00000000E+00  0.00000000E+00
  0.00000000E+00  0.00000000E+00  0.00000000E+00
  0.00000000E+00  0.00000000E+00  0.00000000E+00
  0.00000000E+00  0.00000000E+00  0.00000000E+00
  0.00000000E+00  0.00000000E+00  0.00000000E+00
  0.00000000E+00  0.00000000E+00  0.00000000E+00
  0.00000000E+00  0.00000000E+00  0.00000000E+00
  0.00000000E+00  0.00000000E+00  0.00000000E+00
