step                                    
   1.00000000000000     
     8.4506998061999994    0.0000000000000000    0.0000000000000000
    -4.2253499030999997    7.3185207118999998    0.0000000000000000
     0.0000000000000000    0.0000000000000000   24.2000007629000002
   Ir   Pd   Pt   Rh   Ru
     9    10     9    10    10
Direct
  0.9952681269528763  0.0039521834798718  0.1264266090076168
  0.1122381418845507  0.2105890188458212  0.2157368987707222
  0.5646035732146558  0.1198731374640224  0.0400946653189971
  0.2433876749655403  0.4533100657582019  0.0407782408795917
  0.5501301541383115  0.4394823198556202  0.0397754405655384
  0.3348505008478692  0.6717590525362751  0.1250459249350103
  0.3267231152219928  0.6765449222017531  0.3951332434563234
  0.5551139552930219  0.7773503716810189  0.0394261582218478
  0.6673876186331670  0.6681504716768609  0.1277748309872709
  0.2213593867677870  0.1152955564857716  0.0347558263316682
  0.2206681873709810  0.1082172700538445  0.3070624557877974
  0.7755632153480663  0.2232040031164180  0.2169325382804861
  0.0232857474304729  0.3397659198583515  0.4037555255459495
  0.1080540723125837  0.5559828240980165  0.2166298324887668
  0.3359266490464818  0.3292660475077023  0.4023544637444703
  0.8832194842944672  0.4391647650925921  0.0345954776015433
  0.8852807598931640  0.4439161476641370  0.3130837613703551
  0.2272951627492765  0.7782091706937260  0.0346108569721821
  0.8089665884192158  0.9173343444446539  0.4831114328634984
  0.3231434608937621 -0.0042753187365718  0.4008805363067840
  0.8876761939084140  0.1052848874672737  0.3094845427804332
  0.2184634769439605  0.4427452263387301  0.3076983602263835
  0.5598240847462642  0.4430205088764340  0.3074674869191704
  0.4431115903434424  0.5497121825842430  0.2141857361371635
  0.9962060487034796  0.6632225403179399  0.1271945551872118
  0.5555203996308785  0.7824776479926505  0.3057208380771775
  0.4498570848582379  0.8956331625541626  0.2150949902733116
  0.6514423211479354  0.6665837291767069  0.3994004761499734
  0.3387136223727218  0.0074598968031832  0.1288973911193499
  0.5548262056813410  0.1120662890951064  0.3086447090571903
  0.6466462504057570 -0.0074707564150904  0.4014329624857728
  0.8729936629140481  0.1011985469077873  0.0369744476603178
  0.0018633454566178  0.3261987191775298  0.1259466016192438
  0.2177085524366981  0.7764433701944768  0.3065226956848211
  0.1047320729969450  0.8908096404329835  0.2159013652433306
  0.8695694336970206  0.7762321465916883  0.0383747264781376
  0.8937121324496319  0.7773519355812375  0.3078935237487598
  0.8159530091365494  0.5558952337476166  0.4711383099022199
  0.9973397268991255  0.9788036278576147  0.3964905721168665
  0.4533756465204835  0.2333776992351301  0.2147865739845599
  0.6703568644633500  0.0006665645412410  0.1245749017377710
  0.3286709322195882  0.3212433709547464  0.1276044109636105
  0.6529247854573272  0.3285685923496770  0.1274924830674352
  0.6337850859371710  0.3023533196717565  0.4000749002383874
  0.7648264562031737  0.5550254268055139  0.2151857664909944
  0.0212318402420963  0.6878325531107837  0.3980120950645543
  0.7885863758699829  0.8861310068891669  0.2156386171660752
  0.7798969946794985  0.2401402723816158  0.4736112469833541
 
  0.00000000E+00  0.00000000E+00  0.00000000E+00
  0.00000000E+00  0.00000000E+00  0.00000000E+00
  0.00000000E+00  0.00000000E+00  0.00000000E+00
  0.00000000E+00  0.00000000E+00  0.00000000E+00
  0.00000000E+00  0.00000000E+00  0.00000000E+00
  0.00000000E+00  0.00000000E+00  0.00000000E+00
  0.00000000E+00  0.00000000E+00  0.00000000E+00
  0.00000000E+00  0.00000000E+00  0.00000000E+00
  0.00000000E+00  0.00000000E+00  0.00000000E+00
  0.00000000E+00  0.00000000E+00  0.00000000E+00
  0.00000000E+00  0.00000000E+00  0.00000000E+00
  0.00000000E+00  0.00000000E+00  0.00000000E+00
  0.00000000E+00  0.00000000E+00  0.00000000E+00
  0.00000000E+00  0.00000000E+00  0.00000000E+00
  0.00000000E+00  0.00000000E+00  0.00000000E+00
  0.00000000E+00  0.00000000E+00  0.00000000E+00
  0.00000000E+00  0.00000000E+00  0.00000000E+00
  0.00000000E+00  0.00000000E+00  0.00000000E+00
  0.00000000E+00  0.00000000E+00  0.00000000E+00
  0.00000000E+00  0.00000000E+00  0.00000000E+00
  0.00000000E+00  0.00000000E+00  0.00000000E+00
  0.00000000E+00  0.00000000E+00  0.00000000E+00
  0.00000000E+00  0.00000000E+00  0.00000000E+00
  0.00000000E+00  0.00000000E+00  0.00000000E+00
  0.00000000E+00  0.00000000E+00  0.00000000E+00
  0.00000000E+00  0.00000000E+00  0.00000000E+00
  0.00000000E+00  0.00000000E+00  0.00000000E+00
  0.00000000E+00  0.00000000E+00  0.00000000E+00
  0.00000000E+00  0.00000000E+00  0.00000000E+00
  0.00000000E+00  0.00000000E+00  0.00000000E+00
  0.00000000E+00  0.00000000E+00  0.00000000E+00
  0.00000000E+00  0.00000000E+00  0.00000000E+00
  0.00000000E+00  0.00000000E+00  0.00000000E+00
  0.00000000E+00  0.00000000E+00  0.00000000E+00
  0.00000000E+00  0.00000000E+00  0.00000000E+00
  0.00000000E+00  0.00000000E+00  0.00000000E+00
  0.00000000E+00  0.00000000E+00  0.00000000E+00
  0.00000000E+00  0.00000000E+00  0.00000000E+00
  0.00000000E+00  0.00000000E+00  0.00000000E+00
  0.00000000E+00  0.00000000E+00  0.00000000E+00
  0.00000000E+00  0.00000000E+00  0.00000000E+00
  0.00000000E+00  0.00000000E+00  0.00000000E+00
  0.00000000E+00  0.00000000E+00  0.00000000E+00
  0.00000000E+00  0.00000000E+00  0.00000000E+00
  0.00000000E+00  0.00000000E+00  0.00000000E+00
  0.00000000E+00  0.00000000E+00  0.00000000E+00
  0.00000000E+00  0.00000000E+00  0.00000000E+00
  0.00000000E+00  0.00000000E+00  0.00000000E+00
