total                                   
   1.00000000000000     
     8.4506998061999994    0.0000000000000000    0.0000000000000000
    -4.2253499030999997    7.3185207118999998    0.0000000000000000
     0.0000000000000000    0.0000000000000000   24.2000007629000002
   Ir   Pd   Pt   Rh   Ru   H 
     9     9     9     9     9     1
Direct
  0.9790105276481524  0.0013978954938714  0.0064014538072917
  0.4704774343411796  0.0044318897414435  0.0086261602210161
  0.0652672802181720  0.1924650157333248  0.3182876005267841
  0.6036417974069047  0.7605996180954359  0.2910499508274026
  0.4197189396750917  0.3937503747709661  0.3274071129803999
  0.8335917968477535  0.6767514544568799  0.0433326759065563
  0.2443875671928212  0.0449265261137389  0.3601214586714139
  0.4641061807979073  0.4734715245082615  0.2147679662417390
  0.8928409721509882  0.8421810477153183  0.3531843517856901
  0.6367648970338985  0.8294111338347575  0.1748286023586707
  0.9420305607066188  0.9646769873220498  0.1172594585597209
  0.4987803056614770  0.5430188416735444  0.0892244349956995
  0.1382168940212493  0.8372753350464127  0.1736740031800462
  0.7849784079939881  0.1247124735650437  0.2519658072301341
  0.3357343639579434  0.2281404218163777  0.0089676659142593
  0.6340370969995197  0.3216774578935908  0.0717534742761153
  0.1330131050070210  0.3208182417701140  0.0719364311728954
  0.2838931732343694  0.6069109273727034  0.1566978838439545
  0.9241399577656433  0.8998557816132485  0.2371765145305538
  0.1072674329419847  0.2591422230622859  0.1950203711012506
  0.9580333761236584  0.4846437279801876  0.2165391734081839
  0.0692331476782640  0.6943942281959063  0.3964338120129130
  0.5980468858522050  0.2618883764561834  0.1962034140470604
  0.2438057550712954  0.5480697475381299  0.2764335323095265
  0.2145202220890632  0.4767650797023086  0.3911268370119969
  0.4213445234333958  0.9059247580810112  0.2376595587530404
  0.4647150786457072  0.9653335126811198  0.1177701489072488
  0.1708586603974382  0.8967349742767380  0.0616306168116524
  0.9851887283786130  0.5379125328424404  0.1066489200372436
  0.6178682079809329  0.7897370297544992  0.0085186264984292
  0.2843081554415109  0.6731441210447371  0.0407020654430317
  0.7076551278955532  0.4798184073025025  0.3863373763259303
  0.3943998616514139  0.8436854918193953  0.3532391631278159
  0.9429827472970882  0.4437627272188298  0.0085004281173280
  0.8224136002583347  0.2014356394532931  0.1380484675250788
  0.5724016355949464  0.1975940708903420  0.3172504628482413
  0.7461153705797021  0.5489861054003896  0.2793986907858321
  0.7819956041485550  0.1149520863907569  0.0392403554456467
  0.5768025568193750  0.7030259114965469  0.3944317845487497
  0.2826274862276537  0.1244880863853470  0.2494471891778971
  0.1014808277086836  0.7662951983394169  0.2900721542012271
  0.9178273457394273  0.3957369642334526  0.3314250313660759
  0.3184740485674442  0.1880384792292769  0.1341924171131630
  0.7691037826106705  0.6109969868415001  0.1604207962131489
  0.7440410372105724  0.0427729445595065  0.3627229908696584
  0.6623574879958047  0.9239276662868227  0.4267326699622705
 
  0.00000000E+00  0.00000000E+00  0.00000000E+00
  0.00000000E+00  0.00000000E+00  0.00000000E+00
  0.00000000E+00  0.00000000E+00  0.00000000E+00
  0.00000000E+00  0.00000000E+00  0.00000000E+00
  0.00000000E+00  0.00000000E+00  0.00000000E+00
  0.00000000E+00  0.00000000E+00  0.00000000E+00
  0.00000000E+00  0.00000000E+00  0.00000000E+00
  0.00000000E+00  0.00000000E+00  0.00000000E+00
  0.00000000E+00  0.00000000E+00  0.00000000E+00
  0.00000000E+00  0.00000000E+00  0.00000000E+00
  0.00000000E+00  0.00000000E+00  0.00000000E+00
  0.00000000E+00  0.00000000E+00  0.00000000E+00
  0.00000000E+00  0.00000000E+00  0.00000000E+00
  0.00000000E+00  0.00000000E+00  0.00000000E+00
  0.00000000E+00  0.00000000E+00  0.00000000E+00
  0.00000000E+00  0.00000000E+00  0.00000000E+00
  0.00000000E+00  0.00000000E+00  0.00000000E+00
  0.00000000E+00  0.00000000E+00  0.00000000E+00
  0.00000000E+00  0.00000000E+00  0.00000000E+00
  0.00000000E+00  0.00000000E+00  0.00000000E+00
  0.00000000E+00  0.00000000E+00  0.00000000E+00
  0.00000000E+00  0.00000000E+00  0.00000000E+00
  0.00000000E+00  0.00000000E+00  0.00000000E+00
  0.00000000E+00  0.00000000E+00  0.00000000E+00
  0.00000000E+00  0.00000000E+00  0.00000000E+00
  0.00000000E+00  0.00000000E+00  0.00000000E+00
  0.00000000E+00  0.00000000E+00  0.00000000E+00
  0.00000000E+00  0.00000000E+00  0.00000000E+00
  0.00000000E+00  0.00000000E+00  0.00000000E+00
  0.00000000E+00  0.00000000E+00  0.00000000E+00
  0.00000000E+00  0.00000000E+00  0.00000000E+00
  0.00000000E+00  0.00000000E+00  0.00000000E+00
  0.00000000E+00  0.00000000E+00  0.00000000E+00
  0.00000000E+00  0.00000000E+00  0.00000000E+00
  0.00000000E+00  0.00000000E+00  0.00000000E+00
  0.00000000E+00  0.00000000E+00  0.00000000E+00
  0.00000000E+00  0.00000000E+00  0.00000000E+00
  0.00000000E+00  0.00000000E+00  0.00000000E+00
  0.00000000E+00  0.00000000E+00  0.00000000E+00
  0.00000000E+00  0.00000000E+00  0.00000000E+00
  0.00000000E+00  0.00000000E+00  0.00000000E+00
  0.00000000E+00  0.00000000E+00  0.00000000E+00
  0.00000000E+00  0.00000000E+00  0.00000000E+00
  0.00000000E+00  0.00000000E+00  0.00000000E+00
  0.00000000E+00  0.00000000E+00  0.00000000E+00
  0.00000000E+00  0.00000000E+00  0.00000000E+00
