step                                    
   1.00000000000000     
     8.4506998061999994    0.0000000000000000    0.0000000000000000
    -4.2253499030999997    7.3185207118999998    0.0000000000000000
     0.0000000000000000    0.0000000000000000   24.2000007629000002
   Ir   Pd   Pt   Rh   Ru   H 
     9    11    10     9     9     1
Direct
  0.5558490436000475  0.1078233967915719  0.0399088801919725
  0.5484807497069646  0.1121532312577372  0.3093813676902084
  0.7740711873650811  0.2304800989722482  0.2175206823455171
  0.0128386657587222  0.3513005777344255  0.3959449038887876
  0.3248118114676723  0.3305123233194539  0.1269706188827984
  0.8767401003529280  0.4438087792544252  0.3067961162519603
  0.9966625429668413  0.6585618038815857  0.1262086671004165
  0.3282347130037117  0.6547285490608286  0.3929452622472422
  0.8874546743125840  0.7776287251158928  0.3071319204495177
  0.0020733296846363  0.0082592893554244  0.3995173292791066
  0.2250378355058534  0.1147565473160032  0.0326306047859050
  0.3328353237974576  0.0035260457388436  0.4023005256037442
  0.6475101911358945  0.9884801853962808  0.3996006448292577
  0.2243542425469613  0.4434652543262857  0.3044214246214436
  0.8886632991623269  0.4424162072852046  0.0334891361777707
  0.1068882439221107  0.8850666030053097  0.2167492911853041
  0.4498430637530550  0.8891844421195013  0.2177745675088972
  0.7739301041815985  0.8882965504672741  0.2172744655227896
  0.7801312928075774  0.8937448371590681  0.4859674976867782
  0.7903398075622584  0.5520609910658303  0.4854591623123921
  0.0019368506850406  0.0049646841440366  0.1267537954584728
  0.8859842104264902  0.1098534495323879  0.3067522410153640
  0.1018522361199066  0.5475458951973736  0.2166458652007307
  0.0063574993411631  0.6665761415390445  0.3988610860799490
  0.3325507867578285  0.6673730252332207  0.1285772275464855
  0.5551071595908362  0.7819018215215759  0.0360215057112158
  0.6661191906414090  0.6639455542148957  0.1282767047827216
  0.6549134517763020  0.6570820030304302  0.3991850425042365
  0.8876902308339832  0.7731772827587410  0.0365314994352335
  0.8158800480792398  0.2395976493855097  0.4805631609617547
  0.3364569610668449  0.0041959445338245  0.1267361608835248
  0.4432808092750687  0.2318310703291322  0.2179585551976625
  0.8822321341875401  0.1177298878004651  0.0383341065351999
  0.3314165708855571  0.3368994012398249  0.3958109989277079
  0.5439385454461194  0.4362889002229781  0.0383749750764427
  0.5599697834614307  0.4433108231194710  0.3079263539796537
  0.6674356176062715  0.3295736416073164  0.1280407313916797
  0.2267544495698871  0.7753967271442673  0.0384878488578309
  0.2248438951878390  0.7898555324872828  0.3093810045376116
  0.2178765750149472  0.0998932357062181  0.3067812167856187
  0.1260181205546592  0.2329191232839477  0.2168669144612001
  0.6774940609125946  0.0219490670707671  0.1260373230465333
  0.9962275091966577  0.3229713148832503  0.1267330016994176
  0.2258467288732420  0.4463417064433624  0.0419676904595377
  0.4481551543375094  0.5445259832019513  0.2166346846928261
  0.6730938817180363  0.3353806182258678  0.3968769472523468
  0.7656146110669362  0.5452569580733864  0.2178364692288699
  0.5578525185965558  0.7738547485257122  0.3084088041278827
  0.4356601471958119  0.2345228329205395  0.4342450246004792
 
  0.00000000E+00  0.00000000E+00  0.00000000E+00
  0.00000000E+00  0.00000000E+00  0.00000000E+00
  0.00000000E+00  0.00000000E+00  0.00000000E+00
  0.00000000E+00  0.00000000E+00  0.00000000E+00
  0.00000000E+00  0.00000000E+00  0.00000000E+00
  0.00000000E+00  0.00000000E+00  0.00000000E+00
  0.00000000E+00  0.00000000E+00  0.00000000E+00
  0.00000000E+00  0.00000000E+00  0.00000000E+00
  0.00000000E+00  0.00000000E+00  0.00000000E+00
  0.00000000E+00  0.00000000E+00  0.00000000E+00
  0.00000000E+00  0.00000000E+00  0.00000000E+00
  0.00000000E+00  0.00000000E+00  0.00000000E+00
  0.00000000E+00  0.00000000E+00  0.00000000E+00
  0.00000000E+00  0.00000000E+00  0.00000000E+00
  0.00000000E+00  0.00000000E+00  0.00000000E+00
  0.00000000E+00  0.00000000E+00  0.00000000E+00
  0.00000000E+00  0.00000000E+00  0.00000000E+00
  0.00000000E+00  0.00000000E+00  0.00000000E+00
  0.00000000E+00  0.00000000E+00  0.00000000E+00
  0.00000000E+00  0.00000000E+00  0.00000000E+00
  0.00000000E+00  0.00000000E+00  0.00000000E+00
  0.00000000E+00  0.00000000E+00  0.00000000E+00
  0.00000000E+00  0.00000000E+00  0.00000000E+00
  0.00000000E+00  0.00000000E+00  0.00000000E+00
  0.00000000E+00  0.00000000E+00  0.00000000E+00
  0.00000000E+00  0.00000000E+00  0.00000000E+00
  0.00000000E+00  0.00000000E+00  0.00000000E+00
  0.00000000E+00  0.00000000E+00  0.00000000E+00
  0.00000000E+00  0.00000000E+00  0.00000000E+00
  0.00000000E+00  0.00000000E+00  0.00000000E+00
  0.00000000E+00  0.00000000E+00  0.00000000E+00
  0.00000000E+00  0.00000000E+00  0.00000000E+00
  0.00000000E+00  0.00000000E+00  0.00000000E+00
  0.00000000E+00  0.00000000E+00  0.00000000E+00
  0.00000000E+00  0.00000000E+00  0.00000000E+00
  0.00000000E+00  0.00000000E+00  0.00000000E+00
  0.00000000E+00  0.00000000E+00  0.00000000E+00
  0.00000000E+00  0.00000000E+00  0.00000000E+00
  0.00000000E+00  0.00000000E+00  0.00000000E+00
  0.00000000E+00  0.00000000E+00  0.00000000E+00
  0.00000000E+00  0.00000000E+00  0.00000000E+00
  0.00000000E+00  0.00000000E+00  0.00000000E+00
  0.00000000E+00  0.00000000E+00  0.00000000E+00
  0.00000000E+00  0.00000000E+00  0.00000000E+00
  0.00000000E+00  0.00000000E+00  0.00000000E+00
  0.00000000E+00  0.00000000E+00  0.00000000E+00
  0.00000000E+00  0.00000000E+00  0.00000000E+00
  0.00000000E+00  0.00000000E+00  0.00000000E+00
  0.00000000E+00  0.00000000E+00  0.00000000E+00
