5L_3x3_(1\1\1)                          
   1.00000000000000     
     8.4506998061999994    0.0000000000000000    0.0000000000000000
    -4.2253499030999997    7.3185207118999998    0.0000000000000000
     0.0000000000000000    0.0000000000000000   24.2000007629000002
   Ir   Pd   Pt   Rh   Ru   H 
     9     9     9     9     9     1
Direct
  0.5561483438844577  0.1077348070136272  0.0394075441709682
  0.5465335510287154  0.1067878695794759  0.3093774607305882
  0.7769003716445098  0.2311070482926657  0.2168393404719438
  0.0048283628596031  0.3462446522046275  0.3935586219869239
  0.3262259068596971  0.3314582803756369  0.1267927719046530
  0.8756147807262713  0.4445087677849699  0.3062104602505977
  0.9968489599422329  0.6573868522316707  0.1258047687726760
  0.3310874024119386  0.6543953578857283  0.3930352057389428
  0.8861282945558050  0.7764757811190394  0.3061425577203854
  0.0028622690048322  0.0055378460450101  0.3986425434857806
  0.2259372167534970  0.1149857831497793  0.0321363065769858
  0.3387486904481148  0.0087949127729760  0.4013075336259073
  0.6623794687104154 -0.0012722465502234  0.4011622089202893
  0.2259269626867781  0.4443197839687099  0.3036691341370255
  0.8896763543756401  0.4430042839576724  0.0329732630751809
  0.1062848837555755  0.8840908885322608  0.2160964005283198
  0.4510008556857326  0.8905698403692486  0.2170811178563732
  0.7741807307696146  0.8882337554145846  0.2164610319801671
  0.0028087090793812  0.0053275207760460  0.1261675065042808
  0.8851833571706557  0.1057679737866678  0.3062464165879746
  0.1029460003138906  0.5468812421564270  0.2164850118144424
  0.0054858961123050  0.6630227537946138  0.3985288652659478
  0.3332507633573941  0.6672289059055496  0.1281085521427328
  0.5560677531942235  0.7824357503451451  0.0354667753489284
  0.6653996563680263  0.6634260664997146  0.1279753582965887
  0.6503041727766012  0.6543770944685944  0.3976379505386548
  0.8881722907554386  0.7728577852063780  0.0360904758965945
  0.3369437347878140  0.0040763922559638  0.1262610961754870
  0.4434079117872725  0.2296131789001875  0.2180261850912005
  0.8828598152467075  0.1181176363816303  0.0378515997094972
  0.3238034976086704  0.3317795079131874  0.3946873633796841
  0.5447295438188092  0.4374835916541245  0.0380392839341607
  0.5562471721401187  0.4368542642003873  0.3068579457201200
  0.6670349250017208  0.3287418188738435  0.1274986424704976
  0.2263609718897863  0.7758141779374563  0.0379136156813320
  0.2263323876722703  0.7898904884695115  0.3084087396234489
  0.2222253199033088  0.1019333771813914  0.3060155621525374
  0.1258173926856734  0.2318938919365086  0.2165969208980233
  0.6773689024710510  0.0214048517640184  0.1256206745475167
  0.9970023623775834  0.3234690806224239  0.1262432141691437
  0.2261922329367719  0.4459422881640528  0.0416664874145671
  0.4487494136072182  0.5433530236377149  0.2175512618087792
  0.6833630781480106  0.3325893519063239  0.3946360962471036
  0.7672516756866103  0.5454389760807780  0.2170840980506685
  0.5576578936903308  0.7781198590114740  0.3076889002721290
  0.7900800853089190  0.5728251740223838  0.4358270173242870
 
  0.00000000E+00  0.00000000E+00  0.00000000E+00
  0.00000000E+00  0.00000000E+00  0.00000000E+00
  0.00000000E+00  0.00000000E+00  0.00000000E+00
  0.00000000E+00  0.00000000E+00  0.00000000E+00
  0.00000000E+00  0.00000000E+00  0.00000000E+00
  0.00000000E+00  0.00000000E+00  0.00000000E+00
  0.00000000E+00  0.00000000E+00  0.00000000E+00
  0.00000000E+00  0.00000000E+00  0.00000000E+00
  0.00000000E+00  0.00000000E+00  0.00000000E+00
  0.00000000E+00  0.00000000E+00  0.00000000E+00
  0.00000000E+00  0.00000000E+00  0.00000000E+00
  0.00000000E+00  0.00000000E+00  0.00000000E+00
  0.00000000E+00  0.00000000E+00  0.00000000E+00
  0.00000000E+00  0.00000000E+00  0.00000000E+00
  0.00000000E+00  0.00000000E+00  0.00000000E+00
  0.00000000E+00  0.00000000E+00  0.00000000E+00
  0.00000000E+00  0.00000000E+00  0.00000000E+00
  0.00000000E+00  0.00000000E+00  0.00000000E+00
  0.00000000E+00  0.00000000E+00  0.00000000E+00
  0.00000000E+00  0.00000000E+00  0.00000000E+00
  0.00000000E+00  0.00000000E+00  0.00000000E+00
  0.00000000E+00  0.00000000E+00  0.00000000E+00
  0.00000000E+00  0.00000000E+00  0.00000000E+00
  0.00000000E+00  0.00000000E+00  0.00000000E+00
  0.00000000E+00  0.00000000E+00  0.00000000E+00
  0.00000000E+00  0.00000000E+00  0.00000000E+00
  0.00000000E+00  0.00000000E+00  0.00000000E+00
  0.00000000E+00  0.00000000E+00  0.00000000E+00
  0.00000000E+00  0.00000000E+00  0.00000000E+00
  0.00000000E+00  0.00000000E+00  0.00000000E+00
  0.00000000E+00  0.00000000E+00  0.00000000E+00
  0.00000000E+00  0.00000000E+00  0.00000000E+00
  0.00000000E+00  0.00000000E+00  0.00000000E+00
  0.00000000E+00  0.00000000E+00  0.00000000E+00
  0.00000000E+00  0.00000000E+00  0.00000000E+00
  0.00000000E+00  0.00000000E+00  0.00000000E+00
  0.00000000E+00  0.00000000E+00  0.00000000E+00
  0.00000000E+00  0.00000000E+00  0.00000000E+00
  0.00000000E+00  0.00000000E+00  0.00000000E+00
  0.00000000E+00  0.00000000E+00  0.00000000E+00
  0.00000000E+00  0.00000000E+00  0.00000000E+00
  0.00000000E+00  0.00000000E+00  0.00000000E+00
  0.00000000E+00  0.00000000E+00  0.00000000E+00
  0.00000000E+00  0.00000000E+00  0.00000000E+00
  0.00000000E+00  0.00000000E+00  0.00000000E+00
  0.00000000E+00  0.00000000E+00  0.00000000E+00
