5L_3x3_(1\1\1)                          
   1.00000000000000     
     8.4506998061999994    0.0000000000000000    0.0000000000000000
    -4.2253499030999997    7.3185207118999998    0.0000000000000000
     0.0000000000000000    0.0000000000000000   24.2000007629000002
   Ir   Pd   Pt   Rh   Ru   H 
     9     9     8     9     9     1
Direct
  0.5580241007701230  0.1085328536311153  0.0400220414559916
  0.5474957658072260  0.1063686166527416  0.3084945432320503
  0.7779668837692534  0.2313852140407360  0.2178094697372594
  0.0054289735643432  0.3599205814339874  0.3920767737771160
  0.3265809373501147  0.3314551209042589  0.1269180110504897
  0.8836889270886544  0.4577472541663221  0.3076643266014693
  0.9984699101434784  0.6591207765029491  0.1257427415097140
  0.3311437170561463  0.6513264737173085  0.3915401241541659
  0.8927488088930159  0.7760472206859547  0.3085385711393661
  0.0024261551205239  0.0113091508049164  0.3972273870318719
  0.2269645296529108  0.1150843679349051  0.0320141901310468
  0.3422698266678574  0.0114815538831254  0.4010788298441399
  0.6616941640341480  0.9924948269468078  0.4027036917028838
  0.2253002439883358  0.4437758472297437  0.3032468633550053
  0.8903140532145825  0.4432033650172608  0.0332286363755058
  0.1068465104170809  0.8840231167930769  0.2163348969148670
  0.4482288259948628  0.8902398151258719  0.2179632813702330
  0.7759601120770389  0.8887961259589255  0.2170124553659919
  0.0040530768393585  0.0056049076361640  0.1262433405163936
  0.8841303359566991  0.1076527307658279  0.3065767896178530
  0.1037964741996781  0.5478281851686864  0.2160025259243115
  0.3343935713756153  0.6679744038051946  0.1281144853057049
  0.5578344522829205  0.7839867781938346  0.0359609958393214
  0.6672901127600229  0.6649933287952667  0.1282052673307513
  0.6527574358950068  0.6546483856738435  0.3943578924020076
  0.8886219252461008  0.7732735195364943  0.0360764760128007
  0.3369483155744002  0.0040624215447863  0.1262594659210823
  0.4425784158618349  0.2302609782956591  0.2182218418606102
  0.8827001901075194  0.1187172682212161  0.0383820015865709
  0.3296039540288305  0.3358653790234541  0.3935325529530072
  0.5447460016418320  0.4376420635197453  0.0382882219082607
  0.5605761522600313  0.4384963450668842  0.3061501527816363
  0.6684660597741330  0.3299501680049914  0.1280618571093368
  0.2283982526737064  0.7763006182262955  0.0380352372290608
  0.2151099262695936  0.7844833705352190  0.3116711321816302
  0.2196274038642266  0.0991785808316321  0.3064391337470092
  0.1245797076993064  0.2324048781420859  0.2163179626140624
  0.6770773840992812  0.0213217029109407  0.1270321365232775
  0.9979958485139222  0.3243775175282166  0.1263057069601221
  0.2264990403746380  0.4448316862784781  0.0415917057706408
  0.4493210186783098  0.5442821648980904  0.2172734859365084
  0.6872193523983777  0.3398652261943544  0.3936899434388681
  0.7667032700936161  0.5448022516894276  0.2167295353845201
  0.5565352462862565  0.7803010450097336  0.3068027924268618
  0.5699728364443605  0.1246801935386144  0.4350178204924237
 
  0.00000000E+00  0.00000000E+00  0.00000000E+00
  0.00000000E+00  0.00000000E+00  0.00000000E+00
  0.00000000E+00  0.00000000E+00  0.00000000E+00
  0.00000000E+00  0.00000000E+00  0.00000000E+00
  0.00000000E+00  0.00000000E+00  0.00000000E+00
  0.00000000E+00  0.00000000E+00  0.00000000E+00
  0.00000000E+00  0.00000000E+00  0.00000000E+00
  0.00000000E+00  0.00000000E+00  0.00000000E+00
  0.00000000E+00  0.00000000E+00  0.00000000E+00
  0.00000000E+00  0.00000000E+00  0.00000000E+00
  0.00000000E+00  0.00000000E+00  0.00000000E+00
  0.00000000E+00  0.00000000E+00  0.00000000E+00
  0.00000000E+00  0.00000000E+00  0.00000000E+00
  0.00000000E+00  0.00000000E+00  0.00000000E+00
  0.00000000E+00  0.00000000E+00  0.00000000E+00
  0.00000000E+00  0.00000000E+00  0.00000000E+00
  0.00000000E+00  0.00000000E+00  0.00000000E+00
  0.00000000E+00  0.00000000E+00  0.00000000E+00
  0.00000000E+00  0.00000000E+00  0.00000000E+00
  0.00000000E+00  0.00000000E+00  0.00000000E+00
  0.00000000E+00  0.00000000E+00  0.00000000E+00
  0.00000000E+00  0.00000000E+00  0.00000000E+00
  0.00000000E+00  0.00000000E+00  0.00000000E+00
  0.00000000E+00  0.00000000E+00  0.00000000E+00
  0.00000000E+00  0.00000000E+00  0.00000000E+00
  0.00000000E+00  0.00000000E+00  0.00000000E+00
  0.00000000E+00  0.00000000E+00  0.00000000E+00
  0.00000000E+00  0.00000000E+00  0.00000000E+00
  0.00000000E+00  0.00000000E+00  0.00000000E+00
  0.00000000E+00  0.00000000E+00  0.00000000E+00
  0.00000000E+00  0.00000000E+00  0.00000000E+00
  0.00000000E+00  0.00000000E+00  0.00000000E+00
  0.00000000E+00  0.00000000E+00  0.00000000E+00
  0.00000000E+00  0.00000000E+00  0.00000000E+00
  0.00000000E+00  0.00000000E+00  0.00000000E+00
  0.00000000E+00  0.00000000E+00  0.00000000E+00
  0.00000000E+00  0.00000000E+00  0.00000000E+00
  0.00000000E+00  0.00000000E+00  0.00000000E+00
  0.00000000E+00  0.00000000E+00  0.00000000E+00
  0.00000000E+00  0.00000000E+00  0.00000000E+00
  0.00000000E+00  0.00000000E+00  0.00000000E+00
  0.00000000E+00  0.00000000E+00  0.00000000E+00
  0.00000000E+00  0.00000000E+00  0.00000000E+00
  0.00000000E+00  0.00000000E+00  0.00000000E+00
  0.00000000E+00  0.00000000E+00  0.00000000E+00
