5L_3x3_(1\1\1)                          
   1.00000000000000     
     8.4506998061999994    0.0000000000000000    0.0000000000000000
    -4.2253499030999997    7.3185207118999998    0.0000000000000000
     0.0000000000000000    0.0000000000000000   24.2000007629000002
   Ir   Pd   Pt   Rh   Ru   H 
     9     9     9     8     9     1
Direct
  0.9957423703266770  0.0033973318440370  0.1262620623400207
  0.1136741924874107  0.2112273591832235  0.2153652729980815
  0.5654471588941054  0.1197361638973803  0.0397380720253398
  0.2455643007433802  0.4541528509943034  0.0407793520669205
  0.5508924481043158  0.4387329382055810  0.0396848848681584
  0.3387872308724205  0.6737230232850941  0.1251849841113657
  0.3128751159666433  0.6574286049443971  0.3942439611306070
  0.5559329329556456  0.7781002799157097  0.0386751489771673
  0.6666373744971343  0.6687358385173680  0.1272247241946538
  0.2226048137861835  0.1162801061294994  0.0352070106943706
  0.2260361781440772  0.1097027633387278  0.3064860172415142
  0.7779393296430138  0.2206162060360813  0.2160763275837378
  0.9946928756529030  0.3342769658913026  0.4009975437484789
  0.1124952690648869  0.5598449606190292  0.2151801427650476
  0.3355180635581414  0.3387205281266317  0.4004105943107858
  0.8845112342690103  0.4394127755143357  0.0341351482327236
  0.8904520855889471  0.4452835145822780  0.3063857548041422
  0.2301109484141198  0.7791461613741288  0.0341678191261417
  0.3392930753873618 -0.0024453962807275  0.3999270466761881
  0.8857473905810002  0.1010002275883171  0.3116732305493981
  0.2165083943888212  0.4394867831698387  0.3058783107540937
  0.5586597456619969  0.4428352083993967  0.3051802824319885
  0.4469835864361095  0.5519851450608049  0.2147747776526901
  0.9977467631746806  0.6644036953084760  0.1262014737769073
  0.5574354338336077  0.7887310880614145  0.3096772977228552
  0.4503875444165815  0.8966420114034795  0.2168881362569587
  0.6707977082816040  0.6673477555983406  0.3976738690038467
  0.3415133137879485  0.0065660593757081  0.1291858609107743
  0.5640905770720762  0.1149547565161105  0.3116024396968021
  0.8765821751321325  0.1025024877403469  0.0371919181752273
  0.0035903482371162  0.3270343225944199  0.1252468358246065
  0.2236196067054191  0.7816218375665714  0.3085118052771464
  0.1047681044448271  0.8907330568989350  0.2150315979948570
  0.8702698540492849  0.7763237547933324  0.0378987645084610
  0.8923461414769034  0.7786456566054634  0.3060263739484214
  0.0078735601110900  0.9706560648930598  0.3944011624716323
  0.4554415988566335  0.2321758543776295  0.2147337400329026
  0.6715057337873988  0.0000275926294230  0.1244998410794357
  0.3327799086649941  0.3224074272002921  0.1285199227947958
  0.6548702540679119  0.3277409917474442  0.1269318873695614
  0.6750403828897605  0.3551575018802788  0.3944299899104026
  0.7673906574649586  0.5546251985206339  0.2137027060689749
  0.0060565233999436  0.6717351322386859  0.3940113308050481
  0.7890700719508197  0.8859368328815798  0.2152378252898917
  0.5363394587233322  0.1527357038025721  0.4359152047750063
 
  0.00000000E+00  0.00000000E+00  0.00000000E+00
  0.00000000E+00  0.00000000E+00  0.00000000E+00
  0.00000000E+00  0.00000000E+00  0.00000000E+00
  0.00000000E+00  0.00000000E+00  0.00000000E+00
  0.00000000E+00  0.00000000E+00  0.00000000E+00
  0.00000000E+00  0.00000000E+00  0.00000000E+00
  0.00000000E+00  0.00000000E+00  0.00000000E+00
  0.00000000E+00  0.00000000E+00  0.00000000E+00
  0.00000000E+00  0.00000000E+00  0.00000000E+00
  0.00000000E+00  0.00000000E+00  0.00000000E+00
  0.00000000E+00  0.00000000E+00  0.00000000E+00
  0.00000000E+00  0.00000000E+00  0.00000000E+00
  0.00000000E+00  0.00000000E+00  0.00000000E+00
  0.00000000E+00  0.00000000E+00  0.00000000E+00
  0.00000000E+00  0.00000000E+00  0.00000000E+00
  0.00000000E+00  0.00000000E+00  0.00000000E+00
  0.00000000E+00  0.00000000E+00  0.00000000E+00
  0.00000000E+00  0.00000000E+00  0.00000000E+00
  0.00000000E+00  0.00000000E+00  0.00000000E+00
  0.00000000E+00  0.00000000E+00  0.00000000E+00
  0.00000000E+00  0.00000000E+00  0.00000000E+00
  0.00000000E+00  0.00000000E+00  0.00000000E+00
  0.00000000E+00  0.00000000E+00  0.00000000E+00
  0.00000000E+00  0.00000000E+00  0.00000000E+00
  0.00000000E+00  0.00000000E+00  0.00000000E+00
  0.00000000E+00  0.00000000E+00  0.00000000E+00
  0.00000000E+00  0.00000000E+00  0.00000000E+00
  0.00000000E+00  0.00000000E+00  0.00000000E+00
  0.00000000E+00  0.00000000E+00  0.00000000E+00
  0.00000000E+00  0.00000000E+00  0.00000000E+00
  0.00000000E+00  0.00000000E+00  0.00000000E+00
  0.00000000E+00  0.00000000E+00  0.00000000E+00
  0.00000000E+00  0.00000000E+00  0.00000000E+00
  0.00000000E+00  0.00000000E+00  0.00000000E+00
  0.00000000E+00  0.00000000E+00  0.00000000E+00
  0.00000000E+00  0.00000000E+00  0.00000000E+00
  0.00000000E+00  0.00000000E+00  0.00000000E+00
  0.00000000E+00  0.00000000E+00  0.00000000E+00
  0.00000000E+00  0.00000000E+00  0.00000000E+00
  0.00000000E+00  0.00000000E+00  0.00000000E+00
  0.00000000E+00  0.00000000E+00  0.00000000E+00
  0.00000000E+00  0.00000000E+00  0.00000000E+00
  0.00000000E+00  0.00000000E+00  0.00000000E+00
  0.00000000E+00  0.00000000E+00  0.00000000E+00
  0.00000000E+00  0.00000000E+00  0.00000000E+00
