5L_3x3_(1\1\1)                          
   1.00000000000000     
     8.4506998061999994    0.0000000000000000    0.0000000000000000
    -4.2253499030999997    7.3185207118999998    0.0000000000000000
     0.0000000000000000    0.0000000000000000   24.2000007629000002
   Ir   Pd   Pt   Rh   Ru   H 
     9     9     9     8     9     1
Direct
  0.5561102927270847  0.1071532544360731  0.0396661613144370
  0.5429658275212558  0.1071758260656953  0.3091781239803766
  0.7777587774599790  0.2325143647526708  0.2169988992450724
  0.0030088638412072  0.3526898110806533  0.3927322025338133
  0.3258239887535470  0.3311046442488217  0.1270042498735582
  0.8782733581856227  0.4492734343362032  0.3058559849124579
  0.9968913652291155  0.6569449391758968  0.1269707299331690
  0.3244010588854351  0.6572692800442471  0.3920334132151939
  0.8845117518836479  0.7781072952374541  0.3064626780349897
  0.0131725342743330  0.0211222032546888  0.3967578443150256
  0.2259527557129414  0.1149718731036863  0.0324361551776886
  0.3405788772712148  0.0041935787247924  0.3999310435390233
  0.6665506842491233  0.0004502613928644  0.4002137059683275
  0.2335510334170790  0.4343928316661195  0.3075246306953663
  0.8903115045533931  0.4434954644966737  0.0331905020680342
  0.1048662789825083  0.8812567164125685  0.2161670272894535
  0.4514816493970799  0.8910248149587182  0.2171338163839756
  0.7730771477299058  0.8877679065900543  0.2165664193836319
  0.0025536190030273  0.0059590354083983  0.1265508807925565
  0.8865841180442668  0.1082156684788963  0.3060053745084856
  0.1058149636758013  0.5452977917358547  0.2174581606234833
  0.0024939061443557  0.6701883878513130  0.3988324078254976
  0.3334323206758695  0.6671398490797125  0.1284838699871703
  0.5560514415293408  0.7824376455052451  0.0356424429386437
  0.6641207422580983  0.6634067269041422  0.1282862226113180
  0.6435295159190874  0.6507736037886204  0.3962718307392722
  0.8889353506557925  0.7719147582966134  0.0370678145765998
  0.3364243883709599  0.0041227923845499  0.1262252082195250
  0.4453294231416650  0.2309916649676869  0.2177002410669016
  0.8830072329197204  0.1183200076340790  0.0381603817011522
  0.5453418554910927  0.4377119188103056  0.0381701236933114
  0.5545060038779670  0.4352446688773987  0.3069941054956901
  0.6666347057320170  0.3284656097395921  0.1274130437202625
  0.2254233172415992  0.7739115638605418  0.0381938712369410
  0.2233840646499374  0.7849021277654894  0.3078824577165024
  0.2210815114308502  0.0968146808039289  0.3038049346152298
  0.1263315989038082  0.2331339304119597  0.2173300673746718
  0.6777894102078991  0.0216945607345525  0.1258881172172510
  0.9972639861287356  0.3234754481910597  0.1266115428572097
  0.2258334039124340  0.4462659424428670  0.0418402379751345
  0.4476986513706869  0.5425285552102408  0.2180460853106868
  0.6899875732213077  0.3326099577735246  0.3940398809947999
  0.7683800894421361  0.5451348745132182  0.2170159103394596
  0.5538995741728473  0.7742375901598730  0.3082805915636113
  0.7786573625133590  0.5643366398083616  0.4346219484486957
 
  0.00000000E+00  0.00000000E+00  0.00000000E+00
  0.00000000E+00  0.00000000E+00  0.00000000E+00
  0.00000000E+00  0.00000000E+00  0.00000000E+00
  0.00000000E+00  0.00000000E+00  0.00000000E+00
  0.00000000E+00  0.00000000E+00  0.00000000E+00
  0.00000000E+00  0.00000000E+00  0.00000000E+00
  0.00000000E+00  0.00000000E+00  0.00000000E+00
  0.00000000E+00  0.00000000E+00  0.00000000E+00
  0.00000000E+00  0.00000000E+00  0.00000000E+00
  0.00000000E+00  0.00000000E+00  0.00000000E+00
  0.00000000E+00  0.00000000E+00  0.00000000E+00
  0.00000000E+00  0.00000000E+00  0.00000000E+00
  0.00000000E+00  0.00000000E+00  0.00000000E+00
  0.00000000E+00  0.00000000E+00  0.00000000E+00
  0.00000000E+00  0.00000000E+00  0.00000000E+00
  0.00000000E+00  0.00000000E+00  0.00000000E+00
  0.00000000E+00  0.00000000E+00  0.00000000E+00
  0.00000000E+00  0.00000000E+00  0.00000000E+00
  0.00000000E+00  0.00000000E+00  0.00000000E+00
  0.00000000E+00  0.00000000E+00  0.00000000E+00
  0.00000000E+00  0.00000000E+00  0.00000000E+00
  0.00000000E+00  0.00000000E+00  0.00000000E+00
  0.00000000E+00  0.00000000E+00  0.00000000E+00
  0.00000000E+00  0.00000000E+00  0.00000000E+00
  0.00000000E+00  0.00000000E+00  0.00000000E+00
  0.00000000E+00  0.00000000E+00  0.00000000E+00
  0.00000000E+00  0.00000000E+00  0.00000000E+00
  0.00000000E+00  0.00000000E+00  0.00000000E+00
  0.00000000E+00  0.00000000E+00  0.00000000E+00
  0.00000000E+00  0.00000000E+00  0.00000000E+00
  0.00000000E+00  0.00000000E+00  0.00000000E+00
  0.00000000E+00  0.00000000E+00  0.00000000E+00
  0.00000000E+00  0.00000000E+00  0.00000000E+00
  0.00000000E+00  0.00000000E+00  0.00000000E+00
  0.00000000E+00  0.00000000E+00  0.00000000E+00
  0.00000000E+00  0.00000000E+00  0.00000000E+00
  0.00000000E+00  0.00000000E+00  0.00000000E+00
  0.00000000E+00  0.00000000E+00  0.00000000E+00
  0.00000000E+00  0.00000000E+00  0.00000000E+00
  0.00000000E+00  0.00000000E+00  0.00000000E+00
  0.00000000E+00  0.00000000E+00  0.00000000E+00
  0.00000000E+00  0.00000000E+00  0.00000000E+00
  0.00000000E+00  0.00000000E+00  0.00000000E+00
  0.00000000E+00  0.00000000E+00  0.00000000E+00
  0.00000000E+00  0.00000000E+00  0.00000000E+00
