step                                    
   1.00000000000000     
     8.4506998061999994    0.0000000000000000    0.0000000000000000
    -4.2253499030999997    7.3185207118999998    0.0000000000000000
     0.0000000000000000    0.0000000000000000   24.2000007629000002
   Ir   Pd   Pt   Rh   Ru   H 
    10     9     9    11     9     1
Direct
  0.9979871480929478  0.0081654175738842  0.1268163141573110
  0.1135728578347917  0.2147140622940802  0.2161692998642109
  0.5671819018437483  0.1245205928510780  0.0404179604299944
  0.2456225774961540  0.4576285297342054  0.0410130000976631
  0.5522701644659376  0.4436980421967646  0.0401118093190726
  0.3373629214467729  0.6753877108886722  0.1252184682281262
  0.3277252946155524  0.6820958953594628  0.3958864622716539
  0.5572948238316794  0.7819243764656952  0.0395843607271453
  0.6683283293698131  0.6719621647240573  0.1282883156055155
  0.8186716059514059  0.5766450958715424  0.4695924154350918
  0.2234606019307770  0.1198495168536587  0.0350516956368246
  0.2244383317441520  0.1128296832386928  0.3073512820925868
  0.7776905068004520  0.2274251895963019  0.2170013673551422
  0.0074992470013617  0.3406433802144003  0.4032559773930861
  0.1115712899477382  0.5603556838620428  0.2163560272097176
  0.3254830006091384  0.3299204990899476  0.4028159550557144
  0.8853952028671038  0.4437883530400180  0.0350740293876881
  0.8899349974401375  0.4528240380411078  0.3108352683192800
  0.2291907315613248  0.7823843359925552  0.0350237672284501
  0.3249960875546132 -0.0032380359765864  0.4024798148320378
  0.8912827949019543  0.1104741406931165  0.3097298596381007
  0.2199336731005467  0.4470741941559870  0.3087910916182682
  0.5625713407859947  0.4460900613574648  0.3084824942841852
  0.4443919836479941  0.5533945413696151  0.2151636798081801
  0.9976364538983188  0.6678021013536625  0.1276698287310681
  0.5585204891868447  0.7880895660731241  0.3062633888679782
  0.4539475151384524  0.9007928783141874  0.2152135077812356
  0.6405513048242300  0.6671730784746894  0.3992705054586057
  0.3405126676964931  0.0113011973489122  0.1290249983930423
  0.5583682859466693  0.1165834181450237  0.3098446920940499
  0.6568611143179406  0.0012542106916336  0.4043742758985262
  0.8755420237287401  0.1056722988713743  0.0372710338983206
  0.0041709868312566  0.3300646167223193  0.1261049948530672
  0.2235271976262994  0.7823507031871928  0.3064025864017517
  0.1084172672192079  0.8958462249497855  0.2162634729148223
  0.8716138540399553  0.7805010618020680  0.0388959584593964
  0.8979942290164769  0.7836491528489008  0.3082175072560838
  0.8261934440938513  0.8843127606303066  0.4792866769926180
  0.7881951644640066  0.2690661046122312  0.4836551989928875
 -0.0022817959782423  0.9850175583070053  0.3976982360537635
  0.4553044813830300  0.2357720065680359  0.2147762288481289
  0.6728642649092715  0.0041122515595832  0.1248174746494913
  0.3313164503690859  0.3259593044435327  0.1282726819499217
  0.6550367084591791  0.3336412674385158  0.1278098285895269
  0.6456788312206320  0.3080578242697556  0.4000452416430078
  0.7656598471609342  0.5587824683063742  0.2157338918781650
  0.0255319266768327  0.6902963594185618  0.3974660064674003
  0.7913241153533138  0.8911417888401708  0.2160331748571613
  0.4376654855751178  0.2122019393352821  0.4411178950749305
 
  0.00000000E+00  0.00000000E+00  0.00000000E+00
  0.00000000E+00  0.00000000E+00  0.00000000E+00
  0.00000000E+00  0.00000000E+00  0.00000000E+00
  0.00000000E+00  0.00000000E+00  0.00000000E+00
  0.00000000E+00  0.00000000E+00  0.00000000E+00
  0.00000000E+00  0.00000000E+00  0.00000000E+00
  0.00000000E+00  0.00000000E+00  0.00000000E+00
  0.00000000E+00  0.00000000E+00  0.00000000E+00
  0.00000000E+00  0.00000000E+00  0.00000000E+00
  0.00000000E+00  0.00000000E+00  0.00000000E+00
  0.00000000E+00  0.00000000E+00  0.00000000E+00
  0.00000000E+00  0.00000000E+00  0.00000000E+00
  0.00000000E+00  0.00000000E+00  0.00000000E+00
  0.00000000E+00  0.00000000E+00  0.00000000E+00
  0.00000000E+00  0.00000000E+00  0.00000000E+00
  0.00000000E+00  0.00000000E+00  0.00000000E+00
  0.00000000E+00  0.00000000E+00  0.00000000E+00
  0.00000000E+00  0.00000000E+00  0.00000000E+00
  0.00000000E+00  0.00000000E+00  0.00000000E+00
  0.00000000E+00  0.00000000E+00  0.00000000E+00
  0.00000000E+00  0.00000000E+00  0.00000000E+00
  0.00000000E+00  0.00000000E+00  0.00000000E+00
  0.00000000E+00  0.00000000E+00  0.00000000E+00
  0.00000000E+00  0.00000000E+00  0.00000000E+00
  0.00000000E+00  0.00000000E+00  0.00000000E+00
  0.00000000E+00  0.00000000E+00  0.00000000E+00
  0.00000000E+00  0.00000000E+00  0.00000000E+00
  0.00000000E+00  0.00000000E+00  0.00000000E+00
  0.00000000E+00  0.00000000E+00  0.00000000E+00
  0.00000000E+00  0.00000000E+00  0.00000000E+00
  0.00000000E+00  0.00000000E+00  0.00000000E+00
  0.00000000E+00  0.00000000E+00  0.00000000E+00
  0.00000000E+00  0.00000000E+00  0.00000000E+00
  0.00000000E+00  0.00000000E+00  0.00000000E+00
  0.00000000E+00  0.00000000E+00  0.00000000E+00
  0.00000000E+00  0.00000000E+00  0.00000000E+00
  0.00000000E+00  0.00000000E+00  0.00000000E+00
  0.00000000E+00  0.00000000E+00  0.00000000E+00
  0.00000000E+00  0.00000000E+00  0.00000000E+00
  0.00000000E+00  0.00000000E+00  0.00000000E+00
  0.00000000E+00  0.00000000E+00  0.00000000E+00
  0.00000000E+00  0.00000000E+00  0.00000000E+00
  0.00000000E+00  0.00000000E+00  0.00000000E+00
  0.00000000E+00  0.00000000E+00  0.00000000E+00
  0.00000000E+00  0.00000000E+00  0.00000000E+00
  0.00000000E+00  0.00000000E+00  0.00000000E+00
  0.00000000E+00  0.00000000E+00  0.00000000E+00
  0.00000000E+00  0.00000000E+00  0.00000000E+00
  0.00000000E+00  0.00000000E+00  0.00000000E+00
