5L_3x3_(1\1\1)                          
   1.00000000000000     
     8.4506998061999994    0.0000000000000000    0.0000000000000000
    -4.2253499030999997    7.3185207118999998    0.0000000000000000
     0.0000000000000000    0.0000000000000000   24.2000007629000002
   Ir   Pd   Pt   Rh   Ru   H 
     9     9     9     8     9     1
Direct
  0.5558000183756834  0.1083229193618160  0.0396627283951441
  0.5481480580145701  0.1116004680930933  0.3087405303464235
  0.7771549465833979  0.2329229083904052  0.2173417569953936
  0.0011864737382667  0.3555089560735026  0.3931451630483516
  0.3250325099119130  0.3317294701133872  0.1270086647987082
  0.8793610986702346  0.4508488884485198  0.3054804763997796
  0.9963850701305728  0.6576494763981879  0.1271374454986273
  0.3248501210129281  0.6590845889183837  0.3921606925404863
  0.8856928241308212  0.7793734697642566  0.3065943241827133
  0.0090713267529802  0.0159108439735482  0.3973605007142145
  0.2252170067605745  0.1152699546975443  0.0324593510636684
  0.3413199289978401  0.0083362551147670  0.4007866233767312
  0.6676308161664442  0.0003646110005639  0.4003263509968673
  0.2329535908818137  0.4348220498309540  0.3078584084605804
  0.8894448107304618  0.4439567470279213  0.0333235703485633
  0.1047264184008387  0.8811208005042750  0.2163354653289535
  0.4517396698882133  0.8924962235668008  0.2176203873438979
  0.7730222237846416  0.8882445691690638  0.2167883363331388
  0.0021587234312128  0.0059390734276217  0.1266912324066710
  0.8877432811809867  0.1092392898962941  0.3064258375189998
  0.1061757880681175  0.5457798262100059  0.2173324697942070
  0.9973290480668348  0.6686595171756478  0.3974824815441458
  0.3328122844540441  0.6678126335822100  0.1287042225426413
  0.5543493780392557  0.7823341669587541  0.0359168064001965
  0.6636671528650553  0.6639758725801582  0.1283782495543804
  0.6513564991472058  0.6543764407861498  0.3956417421365456
  0.8879514866567423  0.7722528510640411  0.0371632901900125
  0.3366367377011916  0.0047962263246073  0.1263079574397157
  0.4449667929890402  0.2324294910929958  0.2178447183422865
  0.8826112349837268  0.1188827111366074  0.0381915139525254
  0.5443442648182069  0.4376914032672602  0.0383192743414008
  0.5543999438219765  0.4375631667489086  0.3072144741244697
  0.6664192172356285  0.3286875460901216  0.1275965269337841
  0.2238812809821417  0.7739828102633201  0.0383445425589475
  0.2280754152530430  0.7901595085414190  0.3082306199058391
  0.2201853613821575  0.0972879992130002  0.3035226262348292
  0.1263551215471664  0.2335177630737329  0.2174970852867514
  0.6764948737125304  0.0217096263051542  0.1257802544648567
  0.9962223756290894  0.3224587866249659  0.1266001701649588
  0.2249258047723733  0.4468251700396443  0.0418790859422154
  0.4476308576783109  0.5435839519539760  0.2181135027525613
  0.6886948011440216  0.3372110605660709  0.3954480219174000
  0.7675463734913300  0.5455677836300175  0.2171591289286660
  0.5525252386432999  0.7739774623716363  0.3084474255781232
  0.4713116840822482  0.2267491327445978  0.4292773048842847
 
  0.00000000E+00  0.00000000E+00  0.00000000E+00
  0.00000000E+00  0.00000000E+00  0.00000000E+00
  0.00000000E+00  0.00000000E+00  0.00000000E+00
  0.00000000E+00  0.00000000E+00  0.00000000E+00
  0.00000000E+00  0.00000000E+00  0.00000000E+00
  0.00000000E+00  0.00000000E+00  0.00000000E+00
  0.00000000E+00  0.00000000E+00  0.00000000E+00
  0.00000000E+00  0.00000000E+00  0.00000000E+00
  0.00000000E+00  0.00000000E+00  0.00000000E+00
  0.00000000E+00  0.00000000E+00  0.00000000E+00
  0.00000000E+00  0.00000000E+00  0.00000000E+00
  0.00000000E+00  0.00000000E+00  0.00000000E+00
  0.00000000E+00  0.00000000E+00  0.00000000E+00
  0.00000000E+00  0.00000000E+00  0.00000000E+00
  0.00000000E+00  0.00000000E+00  0.00000000E+00
  0.00000000E+00  0.00000000E+00  0.00000000E+00
  0.00000000E+00  0.00000000E+00  0.00000000E+00
  0.00000000E+00  0.00000000E+00  0.00000000E+00
  0.00000000E+00  0.00000000E+00  0.00000000E+00
  0.00000000E+00  0.00000000E+00  0.00000000E+00
  0.00000000E+00  0.00000000E+00  0.00000000E+00
  0.00000000E+00  0.00000000E+00  0.00000000E+00
  0.00000000E+00  0.00000000E+00  0.00000000E+00
  0.00000000E+00  0.00000000E+00  0.00000000E+00
  0.00000000E+00  0.00000000E+00  0.00000000E+00
  0.00000000E+00  0.00000000E+00  0.00000000E+00
  0.00000000E+00  0.00000000E+00  0.00000000E+00
  0.00000000E+00  0.00000000E+00  0.00000000E+00
  0.00000000E+00  0.00000000E+00  0.00000000E+00
  0.00000000E+00  0.00000000E+00  0.00000000E+00
  0.00000000E+00  0.00000000E+00  0.00000000E+00
  0.00000000E+00  0.00000000E+00  0.00000000E+00
  0.00000000E+00  0.00000000E+00  0.00000000E+00
  0.00000000E+00  0.00000000E+00  0.00000000E+00
  0.00000000E+00  0.00000000E+00  0.00000000E+00
  0.00000000E+00  0.00000000E+00  0.00000000E+00
  0.00000000E+00  0.00000000E+00  0.00000000E+00
  0.00000000E+00  0.00000000E+00  0.00000000E+00
  0.00000000E+00  0.00000000E+00  0.00000000E+00
  0.00000000E+00  0.00000000E+00  0.00000000E+00
  0.00000000E+00  0.00000000E+00  0.00000000E+00
  0.00000000E+00  0.00000000E+00  0.00000000E+00
  0.00000000E+00  0.00000000E+00  0.00000000E+00
  0.00000000E+00  0.00000000E+00  0.00000000E+00
  0.00000000E+00  0.00000000E+00  0.00000000E+00
