step                                    
   1.00000000000000     
     8.4506998061999994    0.0000000000000000    0.0000000000000000
    -4.2253499030999997    7.3185207118999998    0.0000000000000000
     0.0000000000000000    0.0000000000000000   24.2000007629000002
   Ir   Pd   Pt   Rh   Ru   H 
    10     9    10     9    10     1
Direct
  0.9961632363006511  0.0038349053112462  0.1250739972091882
  0.1139110560884530  0.2107217566888991  0.2142942991922786
  0.5652321386699259  0.1198189471084491  0.0389061019880268
  0.2441638089805886  0.4532407808558825  0.0394834757524844
  0.5507874125838902  0.4392281947118107  0.0383358060067295
  0.3357300038118995  0.6711993309572463  0.1238530201566739
  0.3265434579720275  0.6760562904220829  0.3938570899074437
  0.5557817200448824  0.7774330940951372  0.0381202069850359
  0.6680834383823062  0.6677281730598293  0.1265267948432125
  0.8117252912273222  0.5556166834618459  0.4680560281449497
  0.2219113498331602  0.1152028416085571  0.0334728796956082
  0.2223888255373069  0.1079008920999090  0.3055947416896208
  0.7759282164971654  0.2230065162261911  0.2156504042354473
  0.0188377725484438  0.3378587280347668  0.4014796298537588
  0.1093029788170683  0.5557892125483491  0.2151574063436681
  0.3347220225135646  0.3278559954048174  0.4006503692965820
  0.8836652542579283  0.4393908524572829  0.0333791378379259
  0.8868826149343465  0.4454751320991469  0.3110164126307474
  0.2281259195045862  0.7783328275701401  0.0334734835945251
  0.3230591170737456 -0.0039391305618557  0.3997780371881622
  0.8900327882992308  0.1049678755398556  0.3075643198516606
  0.2197040329304285  0.4424266229601105  0.3064248239987346
  0.5620347141618200  0.4431770173075012  0.3064611902970495
  0.4448454445551623  0.5501109723642613  0.2132505376360662
  0.9968928462071744  0.6631440218125635  0.1259621030464371
  0.5569063389425367  0.7823941718569939  0.3046154380417652
  0.4511015667619247  0.8958447049005822  0.2137423245969595
  0.6474232847376398  0.6688322776855230  0.3997402955076230
  0.8039540951965503  0.9165530077514703  0.4808856174234579
  0.3389986052339656  0.0074848027655871  0.1277199789533240
  0.5575565552355332  0.1117944038568668  0.3081497454388765
  0.6489721924623316 -0.0023725459971797  0.3994365929937286
  0.8735580761096908  0.1013573858672775  0.0357245372900158
  0.0022077556055864  0.3258188544693779  0.1246750612145204
  0.2194195261845883  0.7762673158609972  0.3052470549049110
  0.1060603865846258  0.8907339737480802  0.2146324058086354
  0.8703319718184066  0.7762755853137890  0.0370962199919931
  0.8954241669193822  0.7785643476084273  0.3070647710803529
  0.9963649350098187  0.9778328441250368  0.3957769970167348
  0.4533557616627111  0.2332849290054172  0.2131740609279549
  0.6716338729152933  0.0002698610844703  0.1234282860281600
  0.3301768361829771  0.3226609645572587  0.1262395736660439
  0.6535386882313100  0.3285276054479986  0.1260796574201025
  0.6339252416360852  0.2980414880233080  0.3989669315478208
  0.7658879923863871  0.5547505259484216  0.2139930663240135
  0.0247986402004913  0.6845116172809461  0.3971713669974632
  0.7895292900161486  0.8860395196586216  0.2142105439287069
  0.7908143535262020  0.2528149215616112  0.4765109745835461
  0.8572141307067249  0.0957685654750824  0.5219362039312704
 
  0.00000000E+00  0.00000000E+00  0.00000000E+00
  0.00000000E+00  0.00000000E+00  0.00000000E+00
  0.00000000E+00  0.00000000E+00  0.00000000E+00
  0.00000000E+00  0.00000000E+00  0.00000000E+00
  0.00000000E+00  0.00000000E+00  0.00000000E+00
  0.00000000E+00  0.00000000E+00  0.00000000E+00
  0.00000000E+00  0.00000000E+00  0.00000000E+00
  0.00000000E+00  0.00000000E+00  0.00000000E+00
  0.00000000E+00  0.00000000E+00  0.00000000E+00
  0.00000000E+00  0.00000000E+00  0.00000000E+00
  0.00000000E+00  0.00000000E+00  0.00000000E+00
  0.00000000E+00  0.00000000E+00  0.00000000E+00
  0.00000000E+00  0.00000000E+00  0.00000000E+00
  0.00000000E+00  0.00000000E+00  0.00000000E+00
  0.00000000E+00  0.00000000E+00  0.00000000E+00
  0.00000000E+00  0.00000000E+00  0.00000000E+00
  0.00000000E+00  0.00000000E+00  0.00000000E+00
  0.00000000E+00  0.00000000E+00  0.00000000E+00
  0.00000000E+00  0.00000000E+00  0.00000000E+00
  0.00000000E+00  0.00000000E+00  0.00000000E+00
  0.00000000E+00  0.00000000E+00  0.00000000E+00
  0.00000000E+00  0.00000000E+00  0.00000000E+00
  0.00000000E+00  0.00000000E+00  0.00000000E+00
  0.00000000E+00  0.00000000E+00  0.00000000E+00
  0.00000000E+00  0.00000000E+00  0.00000000E+00
  0.00000000E+00  0.00000000E+00  0.00000000E+00
  0.00000000E+00  0.00000000E+00  0.00000000E+00
  0.00000000E+00  0.00000000E+00  0.00000000E+00
  0.00000000E+00  0.00000000E+00  0.00000000E+00
  0.00000000E+00  0.00000000E+00  0.00000000E+00
  0.00000000E+00  0.00000000E+00  0.00000000E+00
  0.00000000E+00  0.00000000E+00  0.00000000E+00
  0.00000000E+00  0.00000000E+00  0.00000000E+00
  0.00000000E+00  0.00000000E+00  0.00000000E+00
  0.00000000E+00  0.00000000E+00  0.00000000E+00
  0.00000000E+00  0.00000000E+00  0.00000000E+00
  0.00000000E+00  0.00000000E+00  0.00000000E+00
  0.00000000E+00  0.00000000E+00  0.00000000E+00
  0.00000000E+00  0.00000000E+00  0.00000000E+00
  0.00000000E+00  0.00000000E+00  0.00000000E+00
  0.00000000E+00  0.00000000E+00  0.00000000E+00
  0.00000000E+00  0.00000000E+00  0.00000000E+00
  0.00000000E+00  0.00000000E+00  0.00000000E+00
  0.00000000E+00  0.00000000E+00  0.00000000E+00
  0.00000000E+00  0.00000000E+00  0.00000000E+00
  0.00000000E+00  0.00000000E+00  0.00000000E+00
  0.00000000E+00  0.00000000E+00  0.00000000E+00
  0.00000000E+00  0.00000000E+00  0.00000000E+00
  0.00000000E+00  0.00000000E+00  0.00000000E+00
