step                                    
   1.00000000000000     
     8.4506998061999994    0.0000000000000000    0.0000000000000000
    -4.2253499030999997    7.3185207118999998    0.0000000000000000
     0.0000000000000000    0.0000000000000000   24.2000007629000002
   Ir   Pd   Pt   Rh   Ru   H 
     9    10     9    10    10     1
Direct
  0.5538948416919712  0.1033143132765472  0.0394002565056861
  0.5444469655610773  0.1054364052419847  0.3081641983612731
  0.7702915679921279  0.2232301867114344  0.2174553346318593
  0.0213649860546509  0.3453754579628406  0.3968325781581886
  0.3231823177152310  0.3245422593650066  0.1263705667503109
  0.8689594784991361  0.4323590727452467  0.3081158892392162
  0.9947790866901743  0.6524981006489909  0.1254877726616638
  0.3245730237119192  0.6493569798550878  0.3923236266007406
  0.8854113509710306  0.7719679622489001  0.3069447491375674
 -0.0000221255863948  0.0033092997664140  0.3992702858651647
  0.2236614952754597  0.1101902809871676  0.0319466126471201
  0.3274720150016717 -0.0010036432189620  0.4008758149586343
  0.6378191383956422 -0.0172005461051027  0.3980090845626588
  0.2243827397263072  0.4393145721127183  0.3032653010529851
  0.8871736199963739  0.4371970890903795  0.0326633839934536
  0.1052985730764788  0.8790475756418202  0.2160594119487966
  0.4471390220324513  0.8822808297344297  0.2166328225789232
  0.7728860843765406  0.8830019657765967  0.2167048411656426
  0.7783137999516896  0.9217589257303836  0.4870258693309867
  0.0003886229543531 -0.0002608354448387  0.1261430475750113
  0.8845622096407921  0.1054201559121632  0.3067562483069606
  0.0975995924499797  0.5403519059559744  0.2166463471654803
  0.0063467866815737  0.6600170288793417  0.3980914828864385
  0.3294510247154034  0.6607549430531834  0.1281583942880185
  0.5529635257708686  0.7765355282798860  0.0358238458221863
  0.6653531149236611  0.6585441558834896  0.1275790711865909
  0.6535952161953268  0.6555837101226456  0.4011388584157752
  0.8857008055306064  0.7680046422413045  0.0359150890001491
  0.3343791909972038 -0.0014354998354280  0.1260774630422546
  0.4402955712719188  0.2255631824283291  0.2177003081242653
  0.8798534908539586  0.1122046884990506  0.0376830097342279
  0.3317719527476279  0.3324545560333834  0.3946382775538852
  0.5421807700076873  0.4307044536938383  0.0377593856333584
  0.5583402716132039  0.4450790002398761  0.3065242844691605
  0.6665753424197129  0.3242804147091586  0.1276747013861699
  0.2250294302429761  0.7701236358278677  0.0380553050469863
  0.2213250803636410  0.7823167992138027  0.3083013832003621
  0.7940965036416386  0.5215233499674983  0.4812042513053446
  0.2143144597523002  0.0931559212084353  0.3060142815236747
  0.1234927269287749  0.2276666775026589  0.2161719732372279
  0.6754728515292981  0.0160815997718941  0.1253351810266501
  0.9934452129656145  0.3173589278007141  0.1261081661488823
  0.2239516834191850  0.4413020824358559  0.0413778739573763
  0.4468525423696038  0.5385076724933842  0.2150597149683798
  0.6341408168636877  0.3243709239326706  0.3975215673179587
  0.7634669081434052  0.5392320462565831  0.2175136675240742
  0.5568501122370543  0.7705400554229017  0.3074321424273089
  0.8110253243802339  0.2469984649343848  0.4673488437572015
  0.6671108702551689  0.6600022040081021  0.4742974428177616
 
  0.00000000E+00  0.00000000E+00  0.00000000E+00
  0.00000000E+00  0.00000000E+00  0.00000000E+00
  0.00000000E+00  0.00000000E+00  0.00000000E+00
  0.00000000E+00  0.00000000E+00  0.00000000E+00
  0.00000000E+00  0.00000000E+00  0.00000000E+00
  0.00000000E+00  0.00000000E+00  0.00000000E+00
  0.00000000E+00  0.00000000E+00  0.00000000E+00
  0.00000000E+00  0.00000000E+00  0.00000000E+00
  0.00000000E+00  0.00000000E+00  0.00000000E+00
  0.00000000E+00  0.00000000E+00  0.00000000E+00
  0.00000000E+00  0.00000000E+00  0.00000000E+00
  0.00000000E+00  0.00000000E+00  0.00000000E+00
  0.00000000E+00  0.00000000E+00  0.00000000E+00
  0.00000000E+00  0.00000000E+00  0.00000000E+00
  0.00000000E+00  0.00000000E+00  0.00000000E+00
  0.00000000E+00  0.00000000E+00  0.00000000E+00
  0.00000000E+00  0.00000000E+00  0.00000000E+00
  0.00000000E+00  0.00000000E+00  0.00000000E+00
  0.00000000E+00  0.00000000E+00  0.00000000E+00
  0.00000000E+00  0.00000000E+00  0.00000000E+00
  0.00000000E+00  0.00000000E+00  0.00000000E+00
  0.00000000E+00  0.00000000E+00  0.00000000E+00
  0.00000000E+00  0.00000000E+00  0.00000000E+00
  0.00000000E+00  0.00000000E+00  0.00000000E+00
  0.00000000E+00  0.00000000E+00  0.00000000E+00
  0.00000000E+00  0.00000000E+00  0.00000000E+00
  0.00000000E+00  0.00000000E+00  0.00000000E+00
  0.00000000E+00  0.00000000E+00  0.00000000E+00
  0.00000000E+00  0.00000000E+00  0.00000000E+00
  0.00000000E+00  0.00000000E+00  0.00000000E+00
  0.00000000E+00  0.00000000E+00  0.00000000E+00
  0.00000000E+00  0.00000000E+00  0.00000000E+00
  0.00000000E+00  0.00000000E+00  0.00000000E+00
  0.00000000E+00  0.00000000E+00  0.00000000E+00
  0.00000000E+00  0.00000000E+00  0.00000000E+00
  0.00000000E+00  0.00000000E+00  0.00000000E+00
  0.00000000E+00  0.00000000E+00  0.00000000E+00
  0.00000000E+00  0.00000000E+00  0.00000000E+00
  0.00000000E+00  0.00000000E+00  0.00000000E+00
  0.00000000E+00  0.00000000E+00  0.00000000E+00
  0.00000000E+00  0.00000000E+00  0.00000000E+00
  0.00000000E+00  0.00000000E+00  0.00000000E+00
  0.00000000E+00  0.00000000E+00  0.00000000E+00
  0.00000000E+00  0.00000000E+00  0.00000000E+00
  0.00000000E+00  0.00000000E+00  0.00000000E+00
  0.00000000E+00  0.00000000E+00  0.00000000E+00
  0.00000000E+00  0.00000000E+00  0.00000000E+00
  0.00000000E+00  0.00000000E+00  0.00000000E+00
  0.00000000E+00  0.00000000E+00  0.00000000E+00
