step                                    
   1.00000000000000     
     8.4506998061999994    0.0000000000000000    0.0000000000000000
    -4.2253499030999997    7.3185207118999998    0.0000000000000000
     0.0000000000000000    0.0000000000000000   24.2000007629000002
   Ir   Pd   Pt   Rh   Ru   H 
    10     9    10    10     9     1
Direct
  0.9946587209224252  0.0042271322170575  0.1254455613341584
  0.1128191356953374  0.2113202160087091  0.2145583586371694
  0.5647075338342947  0.1213032721859451  0.0387282901848071
  0.2428035746268723  0.4528606008459110  0.0394189647539676
  0.5498403881894799  0.4398716281443183  0.0386006419717592
  0.3359378707215727  0.6714322999131110  0.1237063667825489
  0.3251543034340685  0.6756080428393427  0.3937626372955158
  0.5554862690677260  0.7769865433250536  0.0378212272706530
  0.6674650657549194  0.6705098469395736  0.1266340308238206
  0.8180657770537937  0.9289559853511451  0.4707916482556518
  0.2211481994049047  0.1157713955936951  0.0336960469402568
  0.2240823462291584  0.1101782995077286  0.3049942994457919
  0.7756608543514513  0.2217917394682094  0.2154214364028861
  0.0104960990534997  0.3481177948570171  0.4013169721489536
  0.1103478420155674  0.5573348362188615  0.2150141739784514
  0.3271923518128370  0.3254075864396792  0.4007078884081731
  0.8834659366191895  0.4405093615945976  0.0333512097027377
  0.8867445536388839  0.4476016644493376  0.3081192656691813
  0.2279253851858455  0.7791926180345921  0.0334995255129051
  0.3278459660363802  0.0006581940735936  0.3996991393657043
  0.8891432115493433  0.1054482873257214  0.3100584019565074
  0.2177409047909068  0.4429371188634197  0.3067659398703284
  0.5604089734531917  0.4412235400787199  0.3061024320992619
  0.4438444743003422  0.5491886254372652  0.2136670024392669
  0.9963942213541190  0.6640714552516900  0.1259804482284724
  0.5570784819725187  0.7829906655475721  0.3049770088727819
  0.4502138597417181  0.8960354918195510  0.2140568452734272
  0.6485138907117987  0.6556248522090575  0.3985674736339935
  0.8025263055918372  0.5602732211251563  0.4779316827571494
  0.3393540795587350  0.0076439959624436  0.1276428368175739
  0.5588299541986522  0.1149057458638142  0.3082113835372089
  0.6366436892709192  0.9920958508678851  0.3991584216037242
  0.8738654813872477  0.1026699381514690  0.0356612724113568
  0.0016843486237656  0.3266713262911980  0.1246343268224457
  0.2180144645781601  0.7784148605291985  0.3058863643434273
  0.1068863779648056  0.8924874600822279  0.2144558307204466
  0.8701146280070237  0.7769449314532449  0.0371850339971706
  0.8960480776734582  0.7807762663654505  0.3065050141920586
  0.7827344560702698  0.2152991675537455  0.4807290243916097
  0.0111358380436283  0.9796989398136285  0.3973144599988743
  0.4530272254030404  0.2327141973081433  0.2129204266005592
  0.6703699330084819  0.0006214565279884  0.1226255647719385
  0.3293927604359810  0.3226215398238447  0.1265997548102366
  0.6538046678184255  0.3296375352675541  0.1263339916735240
  0.6506147751365587  0.3166575440077082  0.3986095195842114
  0.7645796243998065  0.5544240219624501  0.2134504606704525
  0.0197318322466253  0.6834142238245068  0.3959633003089773
  0.7897305916768577  0.8859511780667325  0.2153740293973646
  0.8576644393835589  0.4327171106111248  0.5193840663305559
 
  0.00000000E+00  0.00000000E+00  0.00000000E+00
  0.00000000E+00  0.00000000E+00  0.00000000E+00
  0.00000000E+00  0.00000000E+00  0.00000000E+00
  0.00000000E+00  0.00000000E+00  0.00000000E+00
  0.00000000E+00  0.00000000E+00  0.00000000E+00
  0.00000000E+00  0.00000000E+00  0.00000000E+00
  0.00000000E+00  0.00000000E+00  0.00000000E+00
  0.00000000E+00  0.00000000E+00  0.00000000E+00
  0.00000000E+00  0.00000000E+00  0.00000000E+00
  0.00000000E+00  0.00000000E+00  0.00000000E+00
  0.00000000E+00  0.00000000E+00  0.00000000E+00
  0.00000000E+00  0.00000000E+00  0.00000000E+00
  0.00000000E+00  0.00000000E+00  0.00000000E+00
  0.00000000E+00  0.00000000E+00  0.00000000E+00
  0.00000000E+00  0.00000000E+00  0.00000000E+00
  0.00000000E+00  0.00000000E+00  0.00000000E+00
  0.00000000E+00  0.00000000E+00  0.00000000E+00
  0.00000000E+00  0.00000000E+00  0.00000000E+00
  0.00000000E+00  0.00000000E+00  0.00000000E+00
  0.00000000E+00  0.00000000E+00  0.00000000E+00
  0.00000000E+00  0.00000000E+00  0.00000000E+00
  0.00000000E+00  0.00000000E+00  0.00000000E+00
  0.00000000E+00  0.00000000E+00  0.00000000E+00
  0.00000000E+00  0.00000000E+00  0.00000000E+00
  0.00000000E+00  0.00000000E+00  0.00000000E+00
  0.00000000E+00  0.00000000E+00  0.00000000E+00
  0.00000000E+00  0.00000000E+00  0.00000000E+00
  0.00000000E+00  0.00000000E+00  0.00000000E+00
  0.00000000E+00  0.00000000E+00  0.00000000E+00
  0.00000000E+00  0.00000000E+00  0.00000000E+00
  0.00000000E+00  0.00000000E+00  0.00000000E+00
  0.00000000E+00  0.00000000E+00  0.00000000E+00
  0.00000000E+00  0.00000000E+00  0.00000000E+00
  0.00000000E+00  0.00000000E+00  0.00000000E+00
  0.00000000E+00  0.00000000E+00  0.00000000E+00
  0.00000000E+00  0.00000000E+00  0.00000000E+00
  0.00000000E+00  0.00000000E+00  0.00000000E+00
  0.00000000E+00  0.00000000E+00  0.00000000E+00
  0.00000000E+00  0.00000000E+00  0.00000000E+00
  0.00000000E+00  0.00000000E+00  0.00000000E+00
  0.00000000E+00  0.00000000E+00  0.00000000E+00
  0.00000000E+00  0.00000000E+00  0.00000000E+00
  0.00000000E+00  0.00000000E+00  0.00000000E+00
  0.00000000E+00  0.00000000E+00  0.00000000E+00
  0.00000000E+00  0.00000000E+00  0.00000000E+00
  0.00000000E+00  0.00000000E+00  0.00000000E+00
  0.00000000E+00  0.00000000E+00  0.00000000E+00
  0.00000000E+00  0.00000000E+00  0.00000000E+00
  0.00000000E+00  0.00000000E+00  0.00000000E+00
