step                                    
   1.00000000000000     
     8.4506998061999994    0.0000000000000000    0.0000000000000000
    -4.2253499030999997    7.3185207118999998    0.0000000000000000
     0.0000000000000000    0.0000000000000000   24.2000007629000002
   Ir   Pd   Pt   Rh   Ru   H 
     9    10     9     9    11     1
Direct
  0.9958584225235069  0.0048487471493171  0.1273845457374389
  0.1123222274451813  0.2120878140034493  0.2160922221016419
  0.5653310956249448  0.1213267107277915  0.0407483023939046
  0.2423769813427523  0.4544002597936877  0.0408555885789359
  0.5498435474427480  0.4408845988545977  0.0402797581966117
  0.3355228644974883  0.6716822430726744  0.1255569875311609
  0.3233715753185196  0.6795242388134913  0.3988430779834294
  0.5555283240666331  0.7778459541559621  0.0397898171145048
  0.6663917274718449  0.6694355651336071  0.1289480161683605
  0.2201299895476440  0.1164290743922241  0.0352991531177684
  0.2250803415755742  0.1100250274019406  0.3059256887185737
  0.7766622401026341  0.2240111138927836  0.2166881722478963
 -0.0086137154429872  0.3298055809178470  0.4065977879707117
  0.1093627143477440  0.5568471185254710  0.2169550736164560
  0.3167855210392267  0.3158586899677764  0.4030636809577461
  0.8837742580211208  0.4404419290098646  0.0348716520943242
  0.8868142977700649  0.4488478230382013  0.3117902803592736
  0.2277883231266050  0.7793339311733692  0.0350161703911103
  0.7460242759313774  0.2222510188463018  0.4876241793114645
  0.3308219419518364  0.0012899996802207  0.4026838928535096
  0.8893824920058776  0.1071794075095081  0.3113913883639037
  0.2159198646647116  0.4438626067503598  0.3097207996060896
  0.5576132692491313  0.4388004114877248  0.3069894785331333
  0.4430171706148968  0.5505943000393414  0.2159041134893327
  0.9964150487700459  0.6642772389415820  0.1276951191403812
  0.5530408366754314  0.7836881877994711  0.3064254748344171
  0.4507355287566840  0.8975944005870650  0.2150343959125984
  0.6186905718039839  0.6433940107491646  0.3985987961316622
  0.3380271723359980  0.0086983425286944  0.1286451838729897
  0.5579789510364452  0.1137544899045940  0.3079447794699667
  0.6413560331419067  0.9960182558437033  0.4012177141512490
  0.8728133428441371  0.1021130242958728  0.0374208559820377
  0.0020243430124444  0.3273801461235250  0.1260609815831761
  0.2197430645399259  0.7788929177763454  0.3065382353075984
  0.1060562337625285  0.8926494191132947  0.2164529458501427
  0.8698229353245802  0.7776127608068116  0.0391705583814423
  0.8906805580119869  0.7802723251434793  0.3126460531126571
  0.0196280423351039  0.9957324505910607  0.3984090486643572
  0.4537688947573510  0.2330359600150478  0.2140101796566763
  0.6706561882337366  0.9995989871502727  0.1250450092875581
  0.3302928147436772  0.3247307308259674  0.1281407858962808
  0.6548744693483793  0.3329081323491099  0.1278646351294061
  0.6386407169839882  0.3139101741641572  0.3992046953423972
  0.7655431101344917  0.5557116948965921  0.2155129698840962
  0.0234843147723242  0.6893411177826018  0.3985757858817606
  0.7916227418425487  0.8900227879178800  0.2163251460862135
  0.8138797200729736  0.5780034322939489  0.4642690414146844
  0.8217272570779375  0.9008906732730227  0.4650725638426746
  0.1756171344422934  0.5420937757892200  0.4467392207462914
 
  0.00000000E+00  0.00000000E+00  0.00000000E+00
  0.00000000E+00  0.00000000E+00  0.00000000E+00
  0.00000000E+00  0.00000000E+00  0.00000000E+00
  0.00000000E+00  0.00000000E+00  0.00000000E+00
  0.00000000E+00  0.00000000E+00  0.00000000E+00
  0.00000000E+00  0.00000000E+00  0.00000000E+00
  0.00000000E+00  0.00000000E+00  0.00000000E+00
  0.00000000E+00  0.00000000E+00  0.00000000E+00
  0.00000000E+00  0.00000000E+00  0.00000000E+00
  0.00000000E+00  0.00000000E+00  0.00000000E+00
  0.00000000E+00  0.00000000E+00  0.00000000E+00
  0.00000000E+00  0.00000000E+00  0.00000000E+00
  0.00000000E+00  0.00000000E+00  0.00000000E+00
  0.00000000E+00  0.00000000E+00  0.00000000E+00
  0.00000000E+00  0.00000000E+00  0.00000000E+00
  0.00000000E+00  0.00000000E+00  0.00000000E+00
  0.00000000E+00  0.00000000E+00  0.00000000E+00
  0.00000000E+00  0.00000000E+00  0.00000000E+00
  0.00000000E+00  0.00000000E+00  0.00000000E+00
  0.00000000E+00  0.00000000E+00  0.00000000E+00
  0.00000000E+00  0.00000000E+00  0.00000000E+00
  0.00000000E+00  0.00000000E+00  0.00000000E+00
  0.00000000E+00  0.00000000E+00  0.00000000E+00
  0.00000000E+00  0.00000000E+00  0.00000000E+00
  0.00000000E+00  0.00000000E+00  0.00000000E+00
  0.00000000E+00  0.00000000E+00  0.00000000E+00
  0.00000000E+00  0.00000000E+00  0.00000000E+00
  0.00000000E+00  0.00000000E+00  0.00000000E+00
  0.00000000E+00  0.00000000E+00  0.00000000E+00
  0.00000000E+00  0.00000000E+00  0.00000000E+00
  0.00000000E+00  0.00000000E+00  0.00000000E+00
  0.00000000E+00  0.00000000E+00  0.00000000E+00
  0.00000000E+00  0.00000000E+00  0.00000000E+00
  0.00000000E+00  0.00000000E+00  0.00000000E+00
  0.00000000E+00  0.00000000E+00  0.00000000E+00
  0.00000000E+00  0.00000000E+00  0.00000000E+00
  0.00000000E+00  0.00000000E+00  0.00000000E+00
  0.00000000E+00  0.00000000E+00  0.00000000E+00
  0.00000000E+00  0.00000000E+00  0.00000000E+00
  0.00000000E+00  0.00000000E+00  0.00000000E+00
  0.00000000E+00  0.00000000E+00  0.00000000E+00
  0.00000000E+00  0.00000000E+00  0.00000000E+00
  0.00000000E+00  0.00000000E+00  0.00000000E+00
  0.00000000E+00  0.00000000E+00  0.00000000E+00
  0.00000000E+00  0.00000000E+00  0.00000000E+00
  0.00000000E+00  0.00000000E+00  0.00000000E+00
  0.00000000E+00  0.00000000E+00  0.00000000E+00
  0.00000000E+00  0.00000000E+00  0.00000000E+00
  0.00000000E+00  0.00000000E+00  0.00000000E+00
