step                                    
   1.00000000000000     
     8.4506998061999994    0.0000000000000000    0.0000000000000000
    -4.2253499030999997    7.3185207118999998    0.0000000000000000
     0.0000000000000000    0.0000000000000000   24.2000007629000002
   Ir   Pd   Pt   Rh   Ru   H 
    10     9     9    11     9     1
Direct
  0.9964129013663143  0.0043025236779259  0.1268013100111060
  0.1119311228236986  0.2108233871875904  0.2161633672967203
  0.5654820657140748  0.1205179123841521  0.0404070077955486
  0.2437401017265420  0.4536257628894524  0.0410280084865590
  0.5506492419247870  0.4400678451947171  0.0401127273747832
  0.3357803824934661  0.6715292988966233  0.1252620808821944
  0.3250600111858553  0.6774476909829451  0.3958278241492056
  0.5555444039092743  0.7779017716362594  0.0396017258929973
  0.6667408605806979  0.6681317309957662  0.1283074200649351
  0.8160369889285990  0.5721913994951764  0.4694745902921061
  0.2219267841973931  0.1160095961791255  0.0350798865854352
  0.2225998410956086  0.1088013749312037  0.3073448589817269
  0.7760853496778467  0.2236144222892248  0.2169942203651201
  0.0050202141642212  0.3359929797022534  0.4032638795800511
  0.1100386478598985  0.5565881342064238  0.2163741588704907
  0.3231423492957459  0.3254770421565260  0.4027856331055405
  0.8838098207256244  0.4398317199158084  0.0350742488597707
  0.8878432686834894  0.4485353618983356  0.3108860497617075
  0.2277213603460079  0.7786454110433429  0.0350278242396256
  0.3221629523102523 -0.0080853553089933  0.4024437583364356
  0.8890868640449804  0.1061498971681204  0.3096889580030764
  0.2178137124568089  0.4427569999503522  0.3087894751896962
  0.5607405434649891  0.4420833294083895  0.3084642279824664
  0.4428535550562687  0.5495313616262197  0.2151886282845193
  0.9961645647246520  0.6640468281008912  0.1276519413769142
  0.5563036975018928  0.7839009243072489  0.3062620759537217
  0.4522348122614194  0.8969930181180482  0.2152169931759172
  0.6379024087346649  0.6626314847953124  0.3992339708496296
  0.3388627773284058  0.0075945128098174  0.1290117213965330
  0.5565273184539907  0.1127355595377706  0.3098302823146389
  0.6546528330576576  0.9969315977300685  0.4043604332124717
  0.8738608134037800  0.1018194072820999  0.0372936164539455
  0.0024970796458890  0.3261930057779974  0.1261559270949661
  0.2214526587496573  0.7782811256054616  0.3064033690114255
  0.1067333097727047  0.8919042936417994  0.2163248600027975
  0.8698828971383871  0.7765588460813712  0.0389107446558191
  0.8960428558649256  0.7794989971346901  0.3081816769419338
  0.8237032739836205  0.8797255284749289  0.4792764163084827
  0.7858180970533997  0.2648885043267885  0.4836080774553654
  0.9951527282436204  0.9807809336660345  0.3976447818200319
  0.4538073157583332  0.2320482189992200  0.2147835922087956
  0.6712284163196164  0.0001909025172521  0.1248382557770977
  0.3297550158947667  0.3222061087159817  0.1283107019572423
  0.6534399212591453  0.3297835246996259  0.1277808620394320
  0.6426064623625299  0.3034974080207468  0.4001174965826099
  0.7642280539657911  0.5550102260358569  0.2157358366608130
  0.0229183766422072  0.6855782036278065  0.3973574328836740
  0.7896594301257026  0.8873384468351180  0.2160100915221560
  0.4347012947207828  0.2057304126511190  0.4413469749517651
 
  0.00000000E+00  0.00000000E+00  0.00000000E+00
  0.00000000E+00  0.00000000E+00  0.00000000E+00
  0.00000000E+00  0.00000000E+00  0.00000000E+00
  0.00000000E+00  0.00000000E+00  0.00000000E+00
  0.00000000E+00  0.00000000E+00  0.00000000E+00
  0.00000000E+00  0.00000000E+00  0.00000000E+00
  0.00000000E+00  0.00000000E+00  0.00000000E+00
  0.00000000E+00  0.00000000E+00  0.00000000E+00
  0.00000000E+00  0.00000000E+00  0.00000000E+00
  0.00000000E+00  0.00000000E+00  0.00000000E+00
  0.00000000E+00  0.00000000E+00  0.00000000E+00
  0.00000000E+00  0.00000000E+00  0.00000000E+00
  0.00000000E+00  0.00000000E+00  0.00000000E+00
  0.00000000E+00  0.00000000E+00  0.00000000E+00
  0.00000000E+00  0.00000000E+00  0.00000000E+00
  0.00000000E+00  0.00000000E+00  0.00000000E+00
  0.00000000E+00  0.00000000E+00  0.00000000E+00
  0.00000000E+00  0.00000000E+00  0.00000000E+00
  0.00000000E+00  0.00000000E+00  0.00000000E+00
  0.00000000E+00  0.00000000E+00  0.00000000E+00
  0.00000000E+00  0.00000000E+00  0.00000000E+00
  0.00000000E+00  0.00000000E+00  0.00000000E+00
  0.00000000E+00  0.00000000E+00  0.00000000E+00
  0.00000000E+00  0.00000000E+00  0.00000000E+00
  0.00000000E+00  0.00000000E+00  0.00000000E+00
  0.00000000E+00  0.00000000E+00  0.00000000E+00
  0.00000000E+00  0.00000000E+00  0.00000000E+00
  0.00000000E+00  0.00000000E+00  0.00000000E+00
  0.00000000E+00  0.00000000E+00  0.00000000E+00
  0.00000000E+00  0.00000000E+00  0.00000000E+00
  0.00000000E+00  0.00000000E+00  0.00000000E+00
  0.00000000E+00  0.00000000E+00  0.00000000E+00
  0.00000000E+00  0.00000000E+00  0.00000000E+00
  0.00000000E+00  0.00000000E+00  0.00000000E+00
  0.00000000E+00  0.00000000E+00  0.00000000E+00
  0.00000000E+00  0.00000000E+00  0.00000000E+00
  0.00000000E+00  0.00000000E+00  0.00000000E+00
  0.00000000E+00  0.00000000E+00  0.00000000E+00
  0.00000000E+00  0.00000000E+00  0.00000000E+00
  0.00000000E+00  0.00000000E+00  0.00000000E+00
  0.00000000E+00  0.00000000E+00  0.00000000E+00
  0.00000000E+00  0.00000000E+00  0.00000000E+00
  0.00000000E+00  0.00000000E+00  0.00000000E+00
  0.00000000E+00  0.00000000E+00  0.00000000E+00
  0.00000000E+00  0.00000000E+00  0.00000000E+00
  0.00000000E+00  0.00000000E+00  0.00000000E+00
  0.00000000E+00  0.00000000E+00  0.00000000E+00
  0.00000000E+00  0.00000000E+00  0.00000000E+00
  0.00000000E+00  0.00000000E+00  0.00000000E+00
