hRu3Rh1Pd1                              
   1.00000000000000     
     8.4506998061999994    0.0000000000000000    0.0000000000000000
    -4.2253499030999997    7.3185207118999998    0.0000000000000000
     0.0000000000000000    0.0000000000000000   24.2000007629000002
   Ir   Pd   Pt   Rh   Ru   H 
     9     9     9     9     9     1
Direct
  0.9964636047918227  0.0046596595326117  0.1260639950153329
  0.1112857642721752  0.2101486152143000  0.2154567309384699
  0.5650598903373016  0.1205590900266815  0.0396031093598443
  0.2430028508787852  0.4529821600592282  0.0403302316895617
  0.5504342307557375  0.4399443674769838  0.0391424703676569
  0.3368853959573854  0.6716461263625328  0.1250219391316297
  0.3251734424628593  0.6763466973718345  0.3951359359987739
  0.5557255183737508  0.7777827723477594  0.0385777412026504
  0.6651652028608037  0.6686927769467457  0.1274612156501875
  0.2221613323903678  0.1158503072837714  0.0344594345073931
  0.2233026594857899  0.1097318626462693  0.3068916514457163
  0.7746988786599903  0.2225323137834732  0.2158678864694662
  0.9967330431071831  0.3353149960464251  0.4044551164357784
  0.1109574130630382  0.5578997513919418  0.2160030704982988
  0.3397853279512005  0.3386452316952130  0.4013398428087889
  0.8840540298516341  0.4400516154163480  0.0341805676635751
  0.8907238223342492  0.4477000362340648  0.3085526001649414
  0.2284020552290639  0.7789163047267236  0.0341871139017631
  0.3357908254260777  0.0042297401160453  0.4007703102016933
  0.8899970357455229  0.1081303688691645  0.3078220920957805
  0.2190666009747879  0.4430039322575489  0.3081816499780152
  0.5598768754021811  0.4411327957587446  0.3058871822738547
  0.4452851799536928  0.5501803542237780  0.2151938742763990
  0.9968978117418650  0.6638618737931731  0.1264615122037414
  0.5572321108140824  0.7799588720642672  0.3056716576627969
  0.4484275304648282  0.8970006902730782  0.2159321546118212
  0.6773650577693388  0.6617408768687910  0.3986262699209615
  0.3401397175294915  0.0072953179228120  0.1287255475930060
  0.5575203780507741  0.1127703292296471  0.3104714357963712
  0.6625567512990738  0.9912488657537399  0.3984953829403394
  0.8752788183587475  0.1023160742713623  0.0368160870203337
  0.0030574571227794  0.3274555172542363  0.1254675004130426
  0.2220165621803950  0.7814713017593812  0.3079054082217792
  0.1040374916656995  0.8899710321288594  0.2151370651325994
  0.8700819780148403  0.7765851004605483  0.0380980966793093
  0.8952740842047783  0.7783634825501611  0.3061590359759890
  0.9944125443589293  0.9779988701403546  0.3958519283157056
  0.4522783369817438  0.2321315400558623  0.2143368061201755
  0.6693948224824804 -0.0002486027432985  0.1236955701416317
  0.3317260203667359  0.3247252768996346  0.1276464488368812
  0.6526864164140909  0.3289880501764278  0.1268313204732044
  0.6595834740086283  0.3291258062599483  0.3942481631975896
  0.7662227832413541  0.5553128788881238  0.2138833928778422
  0.0145508293145788  0.6862304368973970  0.3936865299693995
  0.7904030595468758  0.8884141748456824  0.2153699911260208
  0.8821546578024733  0.0946899944616145  0.4337169416938873
 
  0.00000000E+00  0.00000000E+00  0.00000000E+00
  0.00000000E+00  0.00000000E+00  0.00000000E+00
  0.00000000E+00  0.00000000E+00  0.00000000E+00
  0.00000000E+00  0.00000000E+00  0.00000000E+00
  0.00000000E+00  0.00000000E+00  0.00000000E+00
  0.00000000E+00  0.00000000E+00  0.00000000E+00
  0.00000000E+00  0.00000000E+00  0.00000000E+00
  0.00000000E+00  0.00000000E+00  0.00000000E+00
  0.00000000E+00  0.00000000E+00  0.00000000E+00
  0.00000000E+00  0.00000000E+00  0.00000000E+00
  0.00000000E+00  0.00000000E+00  0.00000000E+00
  0.00000000E+00  0.00000000E+00  0.00000000E+00
  0.00000000E+00  0.00000000E+00  0.00000000E+00
  0.00000000E+00  0.00000000E+00  0.00000000E+00
  0.00000000E+00  0.00000000E+00  0.00000000E+00
  0.00000000E+00  0.00000000E+00  0.00000000E+00
  0.00000000E+00  0.00000000E+00  0.00000000E+00
  0.00000000E+00  0.00000000E+00  0.00000000E+00
  0.00000000E+00  0.00000000E+00  0.00000000E+00
  0.00000000E+00  0.00000000E+00  0.00000000E+00
  0.00000000E+00  0.00000000E+00  0.00000000E+00
  0.00000000E+00  0.00000000E+00  0.00000000E+00
  0.00000000E+00  0.00000000E+00  0.00000000E+00
  0.00000000E+00  0.00000000E+00  0.00000000E+00
  0.00000000E+00  0.00000000E+00  0.00000000E+00
  0.00000000E+00  0.00000000E+00  0.00000000E+00
  0.00000000E+00  0.00000000E+00  0.00000000E+00
  0.00000000E+00  0.00000000E+00  0.00000000E+00
  0.00000000E+00  0.00000000E+00  0.00000000E+00
  0.00000000E+00  0.00000000E+00  0.00000000E+00
  0.00000000E+00  0.00000000E+00  0.00000000E+00
  0.00000000E+00  0.00000000E+00  0.00000000E+00
  0.00000000E+00  0.00000000E+00  0.00000000E+00
  0.00000000E+00  0.00000000E+00  0.00000000E+00
  0.00000000E+00  0.00000000E+00  0.00000000E+00
  0.00000000E+00  0.00000000E+00  0.00000000E+00
  0.00000000E+00  0.00000000E+00  0.00000000E+00
  0.00000000E+00  0.00000000E+00  0.00000000E+00
  0.00000000E+00  0.00000000E+00  0.00000000E+00
  0.00000000E+00  0.00000000E+00  0.00000000E+00
  0.00000000E+00  0.00000000E+00  0.00000000E+00
  0.00000000E+00  0.00000000E+00  0.00000000E+00
  0.00000000E+00  0.00000000E+00  0.00000000E+00
  0.00000000E+00  0.00000000E+00  0.00000000E+00
  0.00000000E+00  0.00000000E+00  0.00000000E+00
  0.00000000E+00  0.00000000E+00  0.00000000E+00
