total                                   
   1.00000000000000     
     8.4506998061999994    0.0000000000000000    0.0000000000000000
    -4.2253499030999997    7.3185207118999998    0.0000000000000000
     0.0000000000000000    0.0000000000000000   24.2000007629000002
   Ir   Pd   Pt   Rh   Ru   H 
     9     9     9     9     9     1
Direct
  0.6146003476338577  0.7249407847066441  0.1250231660188218
  0.5820069477198684  0.4821168441447217  0.3871574960618029
  0.8911669211489610  0.7111567443553113  0.4102635464812672
  0.1426296334706259  0.7629066731297096  0.0486186635612543
  0.6391717695084090  0.7050079811835918  0.2961234500646524
  0.9376306849156787  0.3888195831767960  0.2023910200444497
  0.7623124420693308  0.0948829535007997  0.1360805130391154
  0.1550030621752305  0.7490619005214497  0.3478440864594650
  0.4160767779277259  0.8793251383790304  0.1147931557565390
  0.9462443428843289  0.1437159579951155  0.3895233006023014
  0.2657122292931456  0.3604325512105752  0.4323747066798607
  0.0961793429261875  0.1950220052729041  0.1831080139857166
  0.9922122134733492  0.9340246663232636  0.1009440567394659
  0.8637716585078880  0.8421819196703804  0.2062531739582849
  0.0801334503271108  0.2711407393294807  0.0520331614417747
  0.7595531673791612  0.6075319858739774  0.0442871447438346
  0.6432848089452735  0.8254328719383315  0.4019284124527639
  0.8301986589458703  0.0869213517274476  0.2716284041457892
  0.7443432787611678  0.9333177414420694  0.0329894536061433
  0.2702711177592793  0.1102986081693539  0.0288350516860326
  0.2020192406144672  0.2592112141760780  0.2929899631092142
  0.6930168754127506  0.2393441459521435  0.3765027846378618
  0.4637477212316305  0.9597016924185857  0.0015966094797721
  0.7106376525658171  0.4857078286757485  0.1618377744667672
  0.3311461317937917  0.1149045128610637  0.3672801609476110
  0.2324902939697168  0.9643213798626391  0.2546507968826961
  0.4360777765028613  0.4856453649526844  0.2149245823520706
  0.4172453307432659  0.3880617408355459  0.0948147444830375
  0.2359788445874702  0.5347076502151700  0.1416521231306377
  0.3343035823593234  0.1033143431743998  0.1546778241460923
  0.3815285350720448  0.6362222871993777  0.0404481178235796
  0.5943032521562869  0.1721542077995569  0.2231923815146594
  0.9315732539139782  0.4531749974790502  0.0910777201332898
  0.8921151089340522  0.6045759749074640  0.2706714598071305
  0.0121667357621713  0.4847274213191891  0.4179276149985637
  0.4952090549684189  0.9258879105471404  0.3195560672962344
  0.0914346535469153  0.7321557516961569  0.1641148002939073
  0.5434809648448824  0.8529812829580847  0.2140862111742212
  0.7914710265099328  0.2486907487717473  0.0044660626395002
  0.0008007504403636  0.4054115706107771  0.3179005546301336
  0.5568829460240812  0.3580936678476655  0.2924729247848996
  0.2274307760663595  0.6398999374683236  0.2480718535433492
  0.9720980972075653  0.9105322045976032  0.3257060926719750
  0.5943654476383541  0.2262041282241707  0.0785429478527607
  0.3356784843435805  0.5749286623723556  0.3481738322004245
  0.8365846930174510  0.8329403190263527  0.4528939934702828
 
  0.00000000E+00  0.00000000E+00  0.00000000E+00
  0.00000000E+00  0.00000000E+00  0.00000000E+00
  0.00000000E+00  0.00000000E+00  0.00000000E+00
  0.00000000E+00  0.00000000E+00  0.00000000E+00
  0.00000000E+00  0.00000000E+00  0.00000000E+00
  0.00000000E+00  0.00000000E+00  0.00000000E+00
  0.00000000E+00  0.00000000E+00  0.00000000E+00
  0.00000000E+00  0.00000000E+00  0.00000000E+00
  0.00000000E+00  0.00000000E+00  0.00000000E+00
  0.00000000E+00  0.00000000E+00  0.00000000E+00
  0.00000000E+00  0.00000000E+00  0.00000000E+00
  0.00000000E+00  0.00000000E+00  0.00000000E+00
  0.00000000E+00  0.00000000E+00  0.00000000E+00
  0.00000000E+00  0.00000000E+00  0.00000000E+00
  0.00000000E+00  0.00000000E+00  0.00000000E+00
  0.00000000E+00  0.00000000E+00  0.00000000E+00
  0.00000000E+00  0.00000000E+00  0.00000000E+00
  0.00000000E+00  0.00000000E+00  0.00000000E+00
  0.00000000E+00  0.00000000E+00  0.00000000E+00
  0.00000000E+00  0.00000000E+00  0.00000000E+00
  0.00000000E+00  0.00000000E+00  0.00000000E+00
  0.00000000E+00  0.00000000E+00  0.00000000E+00
  0.00000000E+00  0.00000000E+00  0.00000000E+00
  0.00000000E+00  0.00000000E+00  0.00000000E+00
  0.00000000E+00  0.00000000E+00  0.00000000E+00
  0.00000000E+00  0.00000000E+00  0.00000000E+00
  0.00000000E+00  0.00000000E+00  0.00000000E+00
  0.00000000E+00  0.00000000E+00  0.00000000E+00
  0.00000000E+00  0.00000000E+00  0.00000000E+00
  0.00000000E+00  0.00000000E+00  0.00000000E+00
  0.00000000E+00  0.00000000E+00  0.00000000E+00
  0.00000000E+00  0.00000000E+00  0.00000000E+00
  0.00000000E+00  0.00000000E+00  0.00000000E+00
  0.00000000E+00  0.00000000E+00  0.00000000E+00
  0.00000000E+00  0.00000000E+00  0.00000000E+00
  0.00000000E+00  0.00000000E+00  0.00000000E+00
  0.00000000E+00  0.00000000E+00  0.00000000E+00
  0.00000000E+00  0.00000000E+00  0.00000000E+00
  0.00000000E+00  0.00000000E+00  0.00000000E+00
  0.00000000E+00  0.00000000E+00  0.00000000E+00
  0.00000000E+00  0.00000000E+00  0.00000000E+00
  0.00000000E+00  0.00000000E+00  0.00000000E+00
  0.00000000E+00  0.00000000E+00  0.00000000E+00
  0.00000000E+00  0.00000000E+00  0.00000000E+00
  0.00000000E+00  0.00000000E+00  0.00000000E+00
  0.00000000E+00  0.00000000E+00  0.00000000E+00
