5L_3x3_(1\1\1)                          
   1.00000000000000     
     8.4506998061999994    0.0000000000000000    0.0000000000000000
    -4.2253499030999997    7.3185207118999998    0.0000000000000000
     0.0000000000000000    0.0000000000000000   24.2000007629000002
   Ir   Pd   Pt   Rh   Ru   H 
     9     9     9     8     9     1
Direct
  0.5564093278143186  0.1073513711492844  0.0396090956895874
  0.5446804949240127  0.1085047493213401  0.3089448295310628
  0.7775362080312875  0.2327685454388047  0.2171205746698822
  0.0055509638896193  0.3613601721783615  0.3935123255296872
  0.3252399424409159  0.3308064925873926  0.1269158654279704
  0.8765606049886607  0.4478948238445586  0.3063100040650784
  0.9969455711008767  0.6568287566363049  0.1269787256976412
  0.3254111502088888  0.6599781255031717  0.3921380365423717
  0.8842487518480125  0.7789968041714026  0.3064463973632930
  0.0089542118186292  0.0147944287803797  0.3968468060231015
  0.2261143344785368  0.1147479629876939  0.0324852095773274
  0.3393818962919399  0.0063959964096851  0.3995799609267500
  0.6631193300751845 -0.0024548122703064  0.4008989119995177
  0.2329571870918472  0.4341755186941224  0.3078992427609025
  0.8901735946432021  0.4433012308368615  0.0331588987524752
  0.1044194754922987  0.8811385366747557  0.2161988667090537
  0.4515103457898974  0.8919060033539903  0.2173376186175067
  0.7726134348173365  0.8873542072351162  0.2165922205769772
  0.0025511606374571  0.0061116943425721  0.1265583555934347
  0.8871239748076729  0.1093716455593227  0.3061692541695375
  0.1050919776081300  0.5454309150848260  0.2176119585848725
 -0.0030605185962751  0.6730810076580692  0.3976743625435170
  0.3330551077056066  0.6672858169511992  0.1284723373790905
  0.5558521601721327  0.7820583183363916  0.0356819004257590
  0.6643817991429491  0.6635975156978950  0.1281155940847783
  0.6466910385306303  0.6492531187496678  0.3953267085325059
  0.8889433108444699  0.7716915525908580  0.0371313545479345
  0.3364236161593811  0.0040208941201343  0.1262115978239077
  0.4448106479630217  0.2319566429829990  0.2175777109907007
  0.8830022142016490  0.1182478044721729  0.0381259786504367
  0.5450557853444019  0.4375240285653629  0.0381301715435381
  0.5534238561216958  0.4365456772863123  0.3064519202907112
  0.6664369708378166  0.3281728119426281  0.1273845564806332
  0.2250208974482990  0.7730100962754729  0.0380933864395606
  0.2252821559813899  0.7864799510483074  0.3075695285758206
  0.2207368147609172  0.0973891824827125  0.3037029531723083
  0.1264078468172817  0.2336935211897056  0.2173671511444757
  0.6770004710365658  0.0216904210897986  0.1258998840987318
  0.9966899548420093  0.3230175246100083  0.1266142957442085
  0.2254808481081865  0.4459352923151120  0.0417571160905409
  0.4474469330396521  0.5434725628015236  0.2173118827167834
  0.6823860273390601  0.3411000575072676  0.3937846132665290
  0.7684146059021583  0.5455568455513625  0.2170073595336294
  0.5524129497669594  0.7748045782573409  0.3081409961416728
  0.8145584774404507  0.2429660931139675  0.4367948229878528
 
  0.00000000E+00  0.00000000E+00  0.00000000E+00
  0.00000000E+00  0.00000000E+00  0.00000000E+00
  0.00000000E+00  0.00000000E+00  0.00000000E+00
  0.00000000E+00  0.00000000E+00  0.00000000E+00
  0.00000000E+00  0.00000000E+00  0.00000000E+00
  0.00000000E+00  0.00000000E+00  0.00000000E+00
  0.00000000E+00  0.00000000E+00  0.00000000E+00
  0.00000000E+00  0.00000000E+00  0.00000000E+00
  0.00000000E+00  0.00000000E+00  0.00000000E+00
  0.00000000E+00  0.00000000E+00  0.00000000E+00
  0.00000000E+00  0.00000000E+00  0.00000000E+00
  0.00000000E+00  0.00000000E+00  0.00000000E+00
  0.00000000E+00  0.00000000E+00  0.00000000E+00
  0.00000000E+00  0.00000000E+00  0.00000000E+00
  0.00000000E+00  0.00000000E+00  0.00000000E+00
  0.00000000E+00  0.00000000E+00  0.00000000E+00
  0.00000000E+00  0.00000000E+00  0.00000000E+00
  0.00000000E+00  0.00000000E+00  0.00000000E+00
  0.00000000E+00  0.00000000E+00  0.00000000E+00
  0.00000000E+00  0.00000000E+00  0.00000000E+00
  0.00000000E+00  0.00000000E+00  0.00000000E+00
  0.00000000E+00  0.00000000E+00  0.00000000E+00
  0.00000000E+00  0.00000000E+00  0.00000000E+00
  0.00000000E+00  0.00000000E+00  0.00000000E+00
  0.00000000E+00  0.00000000E+00  0.00000000E+00
  0.00000000E+00  0.00000000E+00  0.00000000E+00
  0.00000000E+00  0.00000000E+00  0.00000000E+00
  0.00000000E+00  0.00000000E+00  0.00000000E+00
  0.00000000E+00  0.00000000E+00  0.00000000E+00
  0.00000000E+00  0.00000000E+00  0.00000000E+00
  0.00000000E+00  0.00000000E+00  0.00000000E+00
  0.00000000E+00  0.00000000E+00  0.00000000E+00
  0.00000000E+00  0.00000000E+00  0.00000000E+00
  0.00000000E+00  0.00000000E+00  0.00000000E+00
  0.00000000E+00  0.00000000E+00  0.00000000E+00
  0.00000000E+00  0.00000000E+00  0.00000000E+00
  0.00000000E+00  0.00000000E+00  0.00000000E+00
  0.00000000E+00  0.00000000E+00  0.00000000E+00
  0.00000000E+00  0.00000000E+00  0.00000000E+00
  0.00000000E+00  0.00000000E+00  0.00000000E+00
  0.00000000E+00  0.00000000E+00  0.00000000E+00
  0.00000000E+00  0.00000000E+00  0.00000000E+00
  0.00000000E+00  0.00000000E+00  0.00000000E+00
  0.00000000E+00  0.00000000E+00  0.00000000E+00
  0.00000000E+00  0.00000000E+00  0.00000000E+00
