step                                    
   1.00000000000000     
     8.4506998061999994    0.0000000000000000    0.0000000000000000
    -4.2253499030999997    7.3185207118999998    0.0000000000000000
     0.0000000000000000    0.0000000000000000   24.2000007629000002
   Ir   Pd   Pt   Rh   Ru   H 
     9    10     9    10    10     1
Direct
  0.9913958508162193 -0.0009486985121185  0.1260158825611224
  0.1083779044305612  0.2057518772128158  0.2152098227072118
  0.5607641897411069  0.1152473323488508  0.0397232976963412
  0.2391908421908654  0.4480129526286290  0.0404699316878207
  0.5462370474452706  0.4348780322626521  0.0394415981253182
  0.3314203107397806  0.6665945011226379  0.1247414515239496
  0.3224731589633678  0.6719488017635589  0.3946116735522343
  0.5516142152247785  0.7717967777610764  0.0390580818221643
  0.6639164800181965  0.6634934372190534  0.1275824857184274
  0.2181300949750951  0.1104248949385404  0.0345303814330587
  0.2172268945840074  0.1036270355419487  0.3063516820231252
  0.7719516434575955  0.2182267215222972  0.2166169433999125
  0.0203575749641876  0.3376039044904317  0.4046797378102573
  0.1041718924341766  0.5508330286060833  0.2162826022808325
  0.3320930918493736  0.3254074318746857  0.4015034165222712
  0.8793600252640903  0.4347434888177274  0.0342131551912091
  0.8824104788167731  0.4398664945944836  0.3129962782743475
  0.2242722267958564  0.7738871365734897  0.0343013826378431
  0.8065538686647468  0.9242713577402983  0.4844733725187300
  0.3219110568291499 -0.0071822280315591  0.4003477592883737
  0.8837984895634025  0.1014164773150463  0.3093264420165676
  0.2137610701897307  0.4374613013277350  0.3074676930925955
  0.5571146759211372  0.4378301843654060  0.3069975754686775
  0.4391178357554084  0.5437955515914032  0.2140243632269982
  0.9928440042496866  0.6583883461657961  0.1267683136790257
  0.5541381781867206  0.7751451442841051  0.3060888486927942
  0.4475724969434242  0.8894769702306986  0.2151300084848213
  0.6553614830595209  0.6591004611500336  0.4005863303537762
  0.3364175206689373  0.0024007502595725  0.1288420321208940
  0.5521997400077456  0.1077290089180724  0.3084135381693021
  0.6424720274085829  0.9837448286714792  0.4002870629588684
  0.8695049303995980  0.0968983982505820  0.0366141311581449
 -0.0021439128823728  0.3213257501448293  0.1255357319633842
  0.2161464515434300  0.7732400025373665  0.3059124321446062
  0.1024448709027822  0.8863871533513789  0.2151909525683548
  0.8662262181362992  0.7715888399446098  0.0380192090253631
  0.8922154745564607  0.7740983128764899  0.3073047844306972
  0.8292034786964678  0.5420560126446208  0.4732368892337235
  0.9950960801139266  0.9800365985951854  0.3957835987445297
  0.4496420882076023  0.2284689602141653  0.2144372161647711
  0.6664532397273513 -0.0044755183630026  0.1240804629797476
  0.3253513819864521  0.3161910547704034  0.1272655576614977
  0.6494745013578315  0.3239880513607395  0.1271120235224354
  0.6313826039850560  0.3011323019510124  0.4002610491684894
  0.7615424952933838  0.5502104793683020  0.2147655013463654
  0.0177949478411585  0.6878125311506111  0.3965110210109068
  0.7854963786631368  0.8815306027467640  0.2154292374956239
  0.7681418056394621  0.2216591031289217  0.4731455319736459
  0.6914103236724692  0.6528776725720837  0.4743515273688377
 
  0.00000000E+00  0.00000000E+00  0.00000000E+00
  0.00000000E+00  0.00000000E+00  0.00000000E+00
  0.00000000E+00  0.00000000E+00  0.00000000E+00
  0.00000000E+00  0.00000000E+00  0.00000000E+00
  0.00000000E+00  0.00000000E+00  0.00000000E+00
  0.00000000E+00  0.00000000E+00  0.00000000E+00
  0.00000000E+00  0.00000000E+00  0.00000000E+00
  0.00000000E+00  0.00000000E+00  0.00000000E+00
  0.00000000E+00  0.00000000E+00  0.00000000E+00
  0.00000000E+00  0.00000000E+00  0.00000000E+00
  0.00000000E+00  0.00000000E+00  0.00000000E+00
  0.00000000E+00  0.00000000E+00  0.00000000E+00
  0.00000000E+00  0.00000000E+00  0.00000000E+00
  0.00000000E+00  0.00000000E+00  0.00000000E+00
  0.00000000E+00  0.00000000E+00  0.00000000E+00
  0.00000000E+00  0.00000000E+00  0.00000000E+00
  0.00000000E+00  0.00000000E+00  0.00000000E+00
  0.00000000E+00  0.00000000E+00  0.00000000E+00
  0.00000000E+00  0.00000000E+00  0.00000000E+00
  0.00000000E+00  0.00000000E+00  0.00000000E+00
  0.00000000E+00  0.00000000E+00  0.00000000E+00
  0.00000000E+00  0.00000000E+00  0.00000000E+00
  0.00000000E+00  0.00000000E+00  0.00000000E+00
  0.00000000E+00  0.00000000E+00  0.00000000E+00
  0.00000000E+00  0.00000000E+00  0.00000000E+00
  0.00000000E+00  0.00000000E+00  0.00000000E+00
  0.00000000E+00  0.00000000E+00  0.00000000E+00
  0.00000000E+00  0.00000000E+00  0.00000000E+00
  0.00000000E+00  0.00000000E+00  0.00000000E+00
  0.00000000E+00  0.00000000E+00  0.00000000E+00
  0.00000000E+00  0.00000000E+00  0.00000000E+00
  0.00000000E+00  0.00000000E+00  0.00000000E+00
  0.00000000E+00  0.00000000E+00  0.00000000E+00
  0.00000000E+00  0.00000000E+00  0.00000000E+00
  0.00000000E+00  0.00000000E+00  0.00000000E+00
  0.00000000E+00  0.00000000E+00  0.00000000E+00
  0.00000000E+00  0.00000000E+00  0.00000000E+00
  0.00000000E+00  0.00000000E+00  0.00000000E+00
  0.00000000E+00  0.00000000E+00  0.00000000E+00
  0.00000000E+00  0.00000000E+00  0.00000000E+00
  0.00000000E+00  0.00000000E+00  0.00000000E+00
  0.00000000E+00  0.00000000E+00  0.00000000E+00
  0.00000000E+00  0.00000000E+00  0.00000000E+00
  0.00000000E+00  0.00000000E+00  0.00000000E+00
  0.00000000E+00  0.00000000E+00  0.00000000E+00
  0.00000000E+00  0.00000000E+00  0.00000000E+00
  0.00000000E+00  0.00000000E+00  0.00000000E+00
  0.00000000E+00  0.00000000E+00  0.00000000E+00
  0.00000000E+00  0.00000000E+00  0.00000000E+00
