5L_3x3_(1\1\1)                          
   1.00000000000000     
     8.4506998061999994    0.0000000000000000    0.0000000000000000
    -4.2253499030999997    7.3185207118999998    0.0000000000000000
     0.0000000000000000    0.0000000000000000   24.2000007629000002
   Ir   Pd   Pt   Rh   Ru   H 
     9     8     9     9     9     1
Direct
  0.5564433552473763  0.1117489892963575  0.0389519120485903
  0.5401578890124857  0.1099820309346629  0.3107651876983282
  0.7775598392072157  0.2342238134276221  0.2165796170964951
  0.0022340888196739  0.3472510647243480  0.3949673737892400
  0.3237007285724668  0.3338056240620624  0.1262738658028605
  0.8749550096327097  0.4460976003981857  0.3053479003579326
  0.9985789314519479  0.6617700166188557  0.1253536317366864
  0.3269591165759768  0.6486590348247648  0.3919388036342723
  0.8905223915925549  0.7819898770635410  0.3065381609206694
  0.0010933669443180  0.0080109282921193  0.3971487079600966
  0.2257543509504355  0.1186430293407697  0.0316629953445006
  0.6468650850406535  0.9971328962274049  0.3987462595597866
  0.2216402899765681  0.4442292824681412  0.3029133240707818
  0.8899792140445756  0.4470809160310208  0.0326317569160207
  0.1070156574597375  0.8877317318610095  0.2163280817940720
  0.4494444377895726  0.8945574009819640  0.2171906369985756
  0.7725335856011913  0.8887890130086877  0.2164855299595530
  0.0020579702294861  0.0073493163454627  0.1259909126973722
  0.8830115442011803  0.1101666756663907  0.3061086562329513
  0.1043974323577761  0.5526845369383754  0.2160393634546187
  0.9933523132212410  0.6598170403491151  0.3958576842874628
  0.3337486189139837  0.6719759499371287  0.1272324601929586
  0.5570399427350120  0.7862608184302332  0.0349091531100090
  0.6654203294178400  0.6664323998791747  0.1273133945272072
  0.6530623933495305  0.6605544956325405  0.3957665489486233
  0.8874336565248647  0.7761489101562477  0.0356310340029355
  0.3364384874346887  0.0076141428987193  0.1260704386929504
  0.4442515589866105  0.2348904511132646  0.2169253737967854
  0.8842816972919394  0.1234368706753433  0.0378679175756147
  0.3354646366101888  0.3363874216587678  0.3923885001067782
  0.5435301967766577  0.4407338177935410  0.0376123842626814
  0.5567281631545119  0.4434304405822524  0.3051451643618447
  0.6673672579084671  0.3318435343723897  0.1268019529413651
  0.2266318970968112  0.7801389375544252  0.0373036033759133
  0.2329644895102828  0.8014019754283527  0.3119529219224341
  0.2244063756706032  0.1055693095586296  0.3078065797369206
  0.1233592725361310  0.2322606599048274  0.2163211067429363
  0.6758711279770179  0.0240389140656231  0.1250154181325374
  0.9958865998439259  0.3260294016605652  0.1269418060942210
  0.2250370948225701  0.4478625336806234  0.0411556590584862
  0.4500123941717550  0.5478611357122350  0.2160916783058376
  0.6697706029098913  0.3405245534844510  0.3913298171746982
  0.7691150145981464  0.5504184025146580  0.2161432267892166
  0.5498144817462455  0.7792976023689242  0.3067898894672246
  0.9454064168858095  0.3203561134776238  0.4587975398441798
 
  0.00000000E+00  0.00000000E+00  0.00000000E+00
  0.00000000E+00  0.00000000E+00  0.00000000E+00
  0.00000000E+00  0.00000000E+00  0.00000000E+00
  0.00000000E+00  0.00000000E+00  0.00000000E+00
  0.00000000E+00  0.00000000E+00  0.00000000E+00
  0.00000000E+00  0.00000000E+00  0.00000000E+00
  0.00000000E+00  0.00000000E+00  0.00000000E+00
  0.00000000E+00  0.00000000E+00  0.00000000E+00
  0.00000000E+00  0.00000000E+00  0.00000000E+00
  0.00000000E+00  0.00000000E+00  0.00000000E+00
  0.00000000E+00  0.00000000E+00  0.00000000E+00
  0.00000000E+00  0.00000000E+00  0.00000000E+00
  0.00000000E+00  0.00000000E+00  0.00000000E+00
  0.00000000E+00  0.00000000E+00  0.00000000E+00
  0.00000000E+00  0.00000000E+00  0.00000000E+00
  0.00000000E+00  0.00000000E+00  0.00000000E+00
  0.00000000E+00  0.00000000E+00  0.00000000E+00
  0.00000000E+00  0.00000000E+00  0.00000000E+00
  0.00000000E+00  0.00000000E+00  0.00000000E+00
  0.00000000E+00  0.00000000E+00  0.00000000E+00
  0.00000000E+00  0.00000000E+00  0.00000000E+00
  0.00000000E+00  0.00000000E+00  0.00000000E+00
  0.00000000E+00  0.00000000E+00  0.00000000E+00
  0.00000000E+00  0.00000000E+00  0.00000000E+00
  0.00000000E+00  0.00000000E+00  0.00000000E+00
  0.00000000E+00  0.00000000E+00  0.00000000E+00
  0.00000000E+00  0.00000000E+00  0.00000000E+00
  0.00000000E+00  0.00000000E+00  0.00000000E+00
  0.00000000E+00  0.00000000E+00  0.00000000E+00
  0.00000000E+00  0.00000000E+00  0.00000000E+00
  0.00000000E+00  0.00000000E+00  0.00000000E+00
  0.00000000E+00  0.00000000E+00  0.00000000E+00
  0.00000000E+00  0.00000000E+00  0.00000000E+00
  0.00000000E+00  0.00000000E+00  0.00000000E+00
  0.00000000E+00  0.00000000E+00  0.00000000E+00
  0.00000000E+00  0.00000000E+00  0.00000000E+00
  0.00000000E+00  0.00000000E+00  0.00000000E+00
  0.00000000E+00  0.00000000E+00  0.00000000E+00
  0.00000000E+00  0.00000000E+00  0.00000000E+00
  0.00000000E+00  0.00000000E+00  0.00000000E+00
  0.00000000E+00  0.00000000E+00  0.00000000E+00
  0.00000000E+00  0.00000000E+00  0.00000000E+00
  0.00000000E+00  0.00000000E+00  0.00000000E+00
  0.00000000E+00  0.00000000E+00  0.00000000E+00
  0.00000000E+00  0.00000000E+00  0.00000000E+00
