5L_3x3_(1\1\1)                          
   1.00000000000000     
     8.4506998061999994    0.0000000000000000    0.0000000000000000
    -4.2253499030999997    7.3185207118999998    0.0000000000000000
     0.0000000000000000    0.0000000000000000   24.2000007629000002
   Ir   Pd   Pt   Rh   Ru   H 
     9     9     9     9     8     1
Direct
  0.9929936359106167  0.0034930865372585  0.1259195790896808
  0.1086981338995532  0.2095025812732805  0.2152310890814985
  0.5620572753319226  0.1190633656025269  0.0402180065156519
  0.2407807681719004  0.4530635624302745  0.0405218384328580
  0.5477247906873435  0.4384654456416344  0.0394181003627553
  0.3317392943962695  0.6695964739973536  0.1251740561432570
  0.3425478526853284  0.6764172448479430  0.3933223159037552
  0.5525304501388347  0.7786401353250351  0.0394345958247292
  0.6631364775813601  0.6667939106592339  0.1277273979210495
  0.2185225349387295  0.1151572576410828  0.0344524089484998
  0.2196314194915974  0.1077657825336034  0.3063127520087990
  0.7721694606160238  0.2220663561595954  0.2159380912892413
  0.0001814669752405  0.3287364769417462  0.4021733883807062
  0.1047629318663917  0.5566616137497857  0.2167445288118313
  0.3321074017015131  0.3327174500628744  0.4011572493918927
  0.8801716674594928  0.4382186770888599  0.0343715277389602
  0.8860850483835679  0.4511363804264251  0.3116782812637904
  0.2250150908523168  0.7779454470563881  0.0343907464891081
  0.3158279895953825 -0.0114272774629239  0.3985141309902050
  0.8865774632966427  0.1094151736122850  0.3074178595724860
  0.2151188116038034  0.4433988530927989  0.3074577505036705
  0.5582064877337101  0.4429309121692241  0.3060794329790925
  0.4403665472200916  0.5482330956617277  0.2145643610451261
  0.9931472088714347  0.6618423645536949  0.1266299733711373
  0.5571812723095093  0.7836156495338957  0.3037348520849935
  0.4421980282794258  0.8953627625861691  0.2162840387991489
  0.6613501939400835  0.6680430931574760  0.3967428828010703
  0.3354998512401311  0.0058256478675162  0.1288181284324673
  0.5519307245905682  0.1119863225585659  0.3088787451918744
  0.6551087689539348  0.9955286017321666  0.3986159285265247
  0.8702033823712255  0.1001619354306058  0.0375259648911633
  0.0004956509003111  0.3266976945398691  0.1256098972781902
  0.2105068841414099  0.7711979029246708  0.3105825232238041
  0.1002399702690919  0.8887422148448609  0.2152766305816113
  0.8663265195399668  0.7754656672172070  0.0381860456710109
  0.8967836762430376  0.7782836418965016  0.3085812580587846
  0.9844850827073541  0.9793396403864545  0.3936144662113218
  0.4504321094819085  0.2312081797200387  0.2143533100534812
  0.6651271847062473 -0.0039753421376922  0.1258024374552098
  0.3271962452391717  0.3223516831074733  0.1275069161099077
  0.6492316907795225  0.3281970207690477  0.1270908694481983
  0.6360365827032227  0.3069396386135710  0.3946370586464698
  0.7637260053320692  0.5535862786963521  0.2143967898519073
  0.7882742320220498  0.8860371353182388  0.2156706114337361
  0.7668717482730133  0.2158973230562788  0.4342556606262223
 
  0.00000000E+00  0.00000000E+00  0.00000000E+00
  0.00000000E+00  0.00000000E+00  0.00000000E+00
  0.00000000E+00  0.00000000E+00  0.00000000E+00
  0.00000000E+00  0.00000000E+00  0.00000000E+00
  0.00000000E+00  0.00000000E+00  0.00000000E+00
  0.00000000E+00  0.00000000E+00  0.00000000E+00
  0.00000000E+00  0.00000000E+00  0.00000000E+00
  0.00000000E+00  0.00000000E+00  0.00000000E+00
  0.00000000E+00  0.00000000E+00  0.00000000E+00
  0.00000000E+00  0.00000000E+00  0.00000000E+00
  0.00000000E+00  0.00000000E+00  0.00000000E+00
  0.00000000E+00  0.00000000E+00  0.00000000E+00
  0.00000000E+00  0.00000000E+00  0.00000000E+00
  0.00000000E+00  0.00000000E+00  0.00000000E+00
  0.00000000E+00  0.00000000E+00  0.00000000E+00
  0.00000000E+00  0.00000000E+00  0.00000000E+00
  0.00000000E+00  0.00000000E+00  0.00000000E+00
  0.00000000E+00  0.00000000E+00  0.00000000E+00
  0.00000000E+00  0.00000000E+00  0.00000000E+00
  0.00000000E+00  0.00000000E+00  0.00000000E+00
  0.00000000E+00  0.00000000E+00  0.00000000E+00
  0.00000000E+00  0.00000000E+00  0.00000000E+00
  0.00000000E+00  0.00000000E+00  0.00000000E+00
  0.00000000E+00  0.00000000E+00  0.00000000E+00
  0.00000000E+00  0.00000000E+00  0.00000000E+00
  0.00000000E+00  0.00000000E+00  0.00000000E+00
  0.00000000E+00  0.00000000E+00  0.00000000E+00
  0.00000000E+00  0.00000000E+00  0.00000000E+00
  0.00000000E+00  0.00000000E+00  0.00000000E+00
  0.00000000E+00  0.00000000E+00  0.00000000E+00
  0.00000000E+00  0.00000000E+00  0.00000000E+00
  0.00000000E+00  0.00000000E+00  0.00000000E+00
  0.00000000E+00  0.00000000E+00  0.00000000E+00
  0.00000000E+00  0.00000000E+00  0.00000000E+00
  0.00000000E+00  0.00000000E+00  0.00000000E+00
  0.00000000E+00  0.00000000E+00  0.00000000E+00
  0.00000000E+00  0.00000000E+00  0.00000000E+00
  0.00000000E+00  0.00000000E+00  0.00000000E+00
  0.00000000E+00  0.00000000E+00  0.00000000E+00
  0.00000000E+00  0.00000000E+00  0.00000000E+00
  0.00000000E+00  0.00000000E+00  0.00000000E+00
  0.00000000E+00  0.00000000E+00  0.00000000E+00
  0.00000000E+00  0.00000000E+00  0.00000000E+00
  0.00000000E+00  0.00000000E+00  0.00000000E+00
  0.00000000E+00  0.00000000E+00  0.00000000E+00
