Amorphous+H                             
   1.00000000000000     
     8.4506998061999994    0.0000000000000000    0.0000000000000000
    -4.2253499030999997    7.3185207118999998    0.0000000000000000
     0.0000000000000000    0.0000000000000000   24.2000007629000002
   Ir   Pd   Pt   Rh   Ru   H 
     9     9     9     9     9     1
Direct
  0.6970964600333441  0.6478820711377581  0.0337594935766600
  0.9065673243193990  0.1163993809214647  0.3292810077578581
  0.4792952217695531  0.5717356056281062  0.4106510709970308
  0.5833382274110775  0.7887081571057355  0.3265991759711665
  0.0232743645112119  0.3522692976102151  0.2380221263993579
  0.2089454910899753  0.1693512265793369  0.2689248539113706
  0.4081589437801477  0.6045599127865225  0.0932973132286372
  0.3147347448359182  0.7513159959770850  0.3911896491243204
  0.0582670108621746  0.6454433609785655  0.3099713157039469
  0.8917018566053170  0.4689289538531597  0.0469949636725998
  0.7105075639187614  0.2999596995974641  0.2957666740354771
  0.8752363722208218  0.8161527226461758  0.2699468593839601
  0.7513859732203659  0.9431253724412488  0.0897622855440692
  0.7903450863276970  0.2388803874241493  0.1462344834925467
  0.3447444087878878  0.6728949766562911  0.2392831131244106
  0.6822646066225345  0.0085476736063965  0.2375872786149050
  0.5633965152966571  0.1234135090188808  0.0476456927614098
  0.1663302822086739  0.8626760869654734  0.2090609709836877
  0.8330523873176502  0.5252526887388674  0.2085514573488989
  0.6438462176434879  0.7079622114624282  0.1788826388050172
  0.2226384112336219  0.4385240319922921  0.3323101886126572
  0.8863475780648719  0.1728079233382429  0.0009266837216849
  0.2256968490033855  0.7927317065528844  0.0541133518802158
  0.4553437410938562  0.9050327090640453  0.1471669342935371
  0.9869285045257028  0.0525689210423537  0.1783322529770455
  0.3847962544438860  0.3224918720585598  0.0304814070148065
  0.0455108180575571  0.9763739229102073  0.0302134922069320
  0.6074831872952948  0.4206716536716699  0.1199987172041685
  0.0949402943263556  0.2811112664844355  0.0899797436411033
  0.4213402620863902  0.2664167665361193  0.3578079762433509
  0.5246035139213577  0.4852061162829652  0.2676015951427406
  0.1179452518596986  0.5659251712441993  0.1458890835472872
  0.2774010985297886  0.0875677630123255  0.1179677839949189
  0.3756786255208143  0.9742021256149354  0.3011749585129738
  0.9131058655362352  0.3854429976126947  0.3859014441439982
  0.6126172731968319  0.0703620667044868  0.3828791106981859
  0.3065966966702418  0.3683581633650385  0.1771136576205491
  0.2159233599890043  0.5053733038700948  0.0055038074762314
  0.8035375709586471  0.8752316190058549  0.4077532973809637
  0.7339861679965406  0.5763543292306015  0.3592529451516055
  0.0053475713341905  0.7072730443789731  0.4163902943076720
  0.9328259317450305  0.7429336830097487  0.1154864097565272
  0.5158652822868554  0.7873978654773457  0.0024215644687303
  0.4789980453625873  0.1947719435550180  0.2070358359966378
  0.0950695730527738  0.9695403424892234  0.3577249594367443
  0.2455930991258358  0.7653793973603444  0.4542500181313975
 
  0.00000000E+00  0.00000000E+00  0.00000000E+00
  0.00000000E+00  0.00000000E+00  0.00000000E+00
  0.00000000E+00  0.00000000E+00  0.00000000E+00
  0.00000000E+00  0.00000000E+00  0.00000000E+00
  0.00000000E+00  0.00000000E+00  0.00000000E+00
  0.00000000E+00  0.00000000E+00  0.00000000E+00
  0.00000000E+00  0.00000000E+00  0.00000000E+00
  0.00000000E+00  0.00000000E+00  0.00000000E+00
  0.00000000E+00  0.00000000E+00  0.00000000E+00
  0.00000000E+00  0.00000000E+00  0.00000000E+00
  0.00000000E+00  0.00000000E+00  0.00000000E+00
  0.00000000E+00  0.00000000E+00  0.00000000E+00
  0.00000000E+00  0.00000000E+00  0.00000000E+00
  0.00000000E+00  0.00000000E+00  0.00000000E+00
  0.00000000E+00  0.00000000E+00  0.00000000E+00
  0.00000000E+00  0.00000000E+00  0.00000000E+00
  0.00000000E+00  0.00000000E+00  0.00000000E+00
  0.00000000E+00  0.00000000E+00  0.00000000E+00
  0.00000000E+00  0.00000000E+00  0.00000000E+00
  0.00000000E+00  0.00000000E+00  0.00000000E+00
  0.00000000E+00  0.00000000E+00  0.00000000E+00
  0.00000000E+00  0.00000000E+00  0.00000000E+00
  0.00000000E+00  0.00000000E+00  0.00000000E+00
  0.00000000E+00  0.00000000E+00  0.00000000E+00
  0.00000000E+00  0.00000000E+00  0.00000000E+00
  0.00000000E+00  0.00000000E+00  0.00000000E+00
  0.00000000E+00  0.00000000E+00  0.00000000E+00
  0.00000000E+00  0.00000000E+00  0.00000000E+00
  0.00000000E+00  0.00000000E+00  0.00000000E+00
  0.00000000E+00  0.00000000E+00  0.00000000E+00
  0.00000000E+00  0.00000000E+00  0.00000000E+00
  0.00000000E+00  0.00000000E+00  0.00000000E+00
  0.00000000E+00  0.00000000E+00  0.00000000E+00
  0.00000000E+00  0.00000000E+00  0.00000000E+00
  0.00000000E+00  0.00000000E+00  0.00000000E+00
  0.00000000E+00  0.00000000E+00  0.00000000E+00
  0.00000000E+00  0.00000000E+00  0.00000000E+00
  0.00000000E+00  0.00000000E+00  0.00000000E+00
  0.00000000E+00  0.00000000E+00  0.00000000E+00
  0.00000000E+00  0.00000000E+00  0.00000000E+00
  0.00000000E+00  0.00000000E+00  0.00000000E+00
  0.00000000E+00  0.00000000E+00  0.00000000E+00
  0.00000000E+00  0.00000000E+00  0.00000000E+00
  0.00000000E+00  0.00000000E+00  0.00000000E+00
  0.00000000E+00  0.00000000E+00  0.00000000E+00
  0.00000000E+00  0.00000000E+00  0.00000000E+00
