5L_3x3_(1\1\1)                          
   1.00000000000000     
     8.4506998061999994    0.0000000000000000    0.0000000000000000
    -4.2253499030999997    7.3185207118999998    0.0000000000000000
     0.0000000000000000    0.0000000000000000   24.2000007629000002
   Ir   Pd   Pt   Rh   Ru   H 
     9     9     8     9     9     1
Direct
  0.5581104158275645  0.1086668865381172  0.0401240832897827
  0.5446916091246793  0.1035899985208920  0.3092529188917175
  0.7773605860182911  0.2320829231823356  0.2182100440370952
  0.0024398914025817  0.3565953765577217  0.3918766056201029
  0.3261727909344284  0.3316070007173947  0.1269417873020677
  0.8878877005924433  0.4651694353756938  0.3081493885487817
  0.9986937340198534  0.6590655491107990  0.1257432651856336
  0.3305776189518316  0.6508180189098988  0.3919136999241547
  0.8926671331686494  0.7782770536456154  0.3082557804543460
  0.0014222074879044  0.0118312867691922  0.3973097995383123
  0.2268263375550773  0.1149974336768036  0.0321139049313285
  0.3382134723919357  0.0020204611779341  0.4012228784952485
  0.6598929100750305  0.9923055039080255  0.4009667772254791
  0.2263428356934613  0.4427761813691988  0.3037372218766916
  0.8902003595967962  0.4429796639563811  0.0332376755818146
  0.1073123874568328  0.8841646432524578  0.2163611075464929
  0.4489336349538131  0.8903630708098343  0.2179413327387114
  0.7762269814353873  0.8898575717603610  0.2169379430951137
  0.0041352102735816  0.0056147184920382  0.1264190657647915
  0.8846814118348941  0.1087434771520541  0.3063756384815997
  0.1042230216395595  0.5475091736501280  0.2159907261158786
  0.3343224897917845  0.6679805577589293  0.1281068202586373
  0.5581955359824129  0.7842201574868105  0.0361776163753114
  0.6673793791751972  0.6650735300508306  0.1283897057650612
  0.6555841374598655  0.6599123254039365  0.3944986432825545
  0.8886492042494153  0.7731215158062810  0.0363146951883187
  0.3373042550850159  0.0042870368354647  0.1263393430245972
  0.4433478241459110  0.2303222728528970  0.2181763379155985
  0.8829756227579466  0.1187366798291621  0.0385797768648923
  0.3351999769941253  0.3369199982628641  0.3948665491936216
  0.5447191463467892  0.4375037574761761  0.0384384305114090
  0.5623046804886406  0.4407922626610258  0.3062266337559283
  0.6687990591766708  0.3305109719473218  0.1282302808839935
  0.2285642192502448  0.7765996065641283  0.0381096036560112
  0.2150894493993774  0.7837300463874687  0.3112087306293063
  0.2204985590904647  0.0999688573614398  0.3062671342208844
  0.1254305155704749  0.2319394380556108  0.2167252662400295
  0.6769995180921186  0.0218660896902125  0.1272274790711277
  0.9980036622048664  0.3242814238355433  0.1265975406672951
  0.2261088785012945  0.4441411977191870  0.0417881252333587
  0.4496296738670101  0.5447555718707928  0.2174284610386869
  0.6864382498253949  0.3303371961255219  0.3920066815266720
  0.7664499729356348  0.5443220033059754  0.2168185287938575
  0.5566546185046565  0.7784936637507556  0.3065489865899831
  0.4404474234793674  0.2354267658939326  0.4328042791915192
 
  0.00000000E+00  0.00000000E+00  0.00000000E+00
  0.00000000E+00  0.00000000E+00  0.00000000E+00
  0.00000000E+00  0.00000000E+00  0.00000000E+00
  0.00000000E+00  0.00000000E+00  0.00000000E+00
  0.00000000E+00  0.00000000E+00  0.00000000E+00
  0.00000000E+00  0.00000000E+00  0.00000000E+00
  0.00000000E+00  0.00000000E+00  0.00000000E+00
  0.00000000E+00  0.00000000E+00  0.00000000E+00
  0.00000000E+00  0.00000000E+00  0.00000000E+00
  0.00000000E+00  0.00000000E+00  0.00000000E+00
  0.00000000E+00  0.00000000E+00  0.00000000E+00
  0.00000000E+00  0.00000000E+00  0.00000000E+00
  0.00000000E+00  0.00000000E+00  0.00000000E+00
  0.00000000E+00  0.00000000E+00  0.00000000E+00
  0.00000000E+00  0.00000000E+00  0.00000000E+00
  0.00000000E+00  0.00000000E+00  0.00000000E+00
  0.00000000E+00  0.00000000E+00  0.00000000E+00
  0.00000000E+00  0.00000000E+00  0.00000000E+00
  0.00000000E+00  0.00000000E+00  0.00000000E+00
  0.00000000E+00  0.00000000E+00  0.00000000E+00
  0.00000000E+00  0.00000000E+00  0.00000000E+00
  0.00000000E+00  0.00000000E+00  0.00000000E+00
  0.00000000E+00  0.00000000E+00  0.00000000E+00
  0.00000000E+00  0.00000000E+00  0.00000000E+00
  0.00000000E+00  0.00000000E+00  0.00000000E+00
  0.00000000E+00  0.00000000E+00  0.00000000E+00
  0.00000000E+00  0.00000000E+00  0.00000000E+00
  0.00000000E+00  0.00000000E+00  0.00000000E+00
  0.00000000E+00  0.00000000E+00  0.00000000E+00
  0.00000000E+00  0.00000000E+00  0.00000000E+00
  0.00000000E+00  0.00000000E+00  0.00000000E+00
  0.00000000E+00  0.00000000E+00  0.00000000E+00
  0.00000000E+00  0.00000000E+00  0.00000000E+00
  0.00000000E+00  0.00000000E+00  0.00000000E+00
  0.00000000E+00  0.00000000E+00  0.00000000E+00
  0.00000000E+00  0.00000000E+00  0.00000000E+00
  0.00000000E+00  0.00000000E+00  0.00000000E+00
  0.00000000E+00  0.00000000E+00  0.00000000E+00
  0.00000000E+00  0.00000000E+00  0.00000000E+00
  0.00000000E+00  0.00000000E+00  0.00000000E+00
  0.00000000E+00  0.00000000E+00  0.00000000E+00
  0.00000000E+00  0.00000000E+00  0.00000000E+00
  0.00000000E+00  0.00000000E+00  0.00000000E+00
  0.00000000E+00  0.00000000E+00  0.00000000E+00
  0.00000000E+00  0.00000000E+00  0.00000000E+00
