step                                    
   1.00000000000000     
     8.4506998061999994    0.0000000000000000    0.0000000000000000
    -4.2253499030999997    7.3185207118999998    0.0000000000000000
     0.0000000000000000    0.0000000000000000   24.2000007629000002
   Ir   Pd   Pt   Rh   Ru   H 
     9    10     9    10    10     1
Direct
  0.9955984923457782  0.0032662520243797  0.1267914355352171
  0.1119754532890840  0.2095753924791769  0.2162244943940821
  0.5649677452969458  0.1196745869726935  0.0404527808419605
  0.2429600794847970  0.4524867597311725  0.0410606041521611
  0.5502754320857183  0.4394764986572335  0.0400866070377608
  0.3345762516272524  0.6709964855981047  0.1252865121289717
  0.3273313011410978  0.6738178781978877  0.3953743043069369
  0.5551127780494026  0.7769063077048355  0.0397082445942842
  0.6674551433105870  0.6677283012686582  0.1280782915634751
  0.2218150229943540  0.1148679328564276  0.0350359235284748
  0.2189604937501758  0.1065432921110293  0.3085042210101253
  0.7746806493153312  0.2231496071480452  0.2169652902297840
  0.0224805125567066  0.3387422149974556  0.4040058911352782
  0.1077671073845971  0.5555288069843565  0.2169475424776133
  0.3365946613449641  0.3308332991784358  0.4027734697905526
  0.8834101039036403  0.4389039588281948  0.0350889683229535
  0.8855239161572523  0.4447019423053842  0.3132353577239452
  0.2274613381342283  0.7779260591432108  0.0348597089470364
  0.7926738876719063  0.9139385785961947  0.4856591216797980
  0.3312212865997700 -0.0034876119758982  0.4023146459689245
  0.8879336889438242  0.1067286466019674  0.3086435120906054
  0.2184247419028387  0.4420025382526798  0.3077327452177561
  0.5589547102027900  0.4417447545455080  0.3076042558568176
  0.4427724548414221  0.5488935800151092  0.2143609031948499
  0.9962935830582418  0.6632614877415867  0.1275669252978464
  0.5559482018096352  0.7810528320483747  0.3058395225196459
  0.4497818896433025  0.8941797923593449  0.2153455698615701
  0.6514288464857398  0.6634044166830348  0.4003439039735057
  0.3384515282043496  0.0066252212396968  0.1292456341485176
  0.5533958798963001  0.1106348218224837  0.3088239792288957
  0.6530591148098550 -0.0066846395651551  0.4000581041511770
  0.8731921434097486  0.1010135747764263  0.0374398585558888
  0.0019005255867698  0.3255420033048858  0.1264423878025565
  0.2185224014492053  0.7767150745680924  0.3071712583104125
  0.1047168469620419  0.8901409389830464  0.2166835869652338
  0.8696127471377018  0.7759239997425426  0.0386836675042795
  0.8944257389783532  0.7773173098427648  0.3090240119097453
  0.8133402162451548  0.5487825638609354  0.4726040028855000
  0.9844265955976369  0.9806380203426517  0.3977604643853552
  0.4515755064511222  0.2322196934604841  0.2151036451911559
  0.6699970189828375 -0.0003235761957074  0.1248953971577108
  0.3282493979210306  0.3205079901629013  0.1278142613067360
  0.6523077632285792  0.3283765100131879  0.1279042035627807
  0.6358611607245324  0.3050940886838693  0.4000104934909561
  0.7643729759154969  0.5542437821947324  0.2154941932174728
  0.0209455005471866  0.6841277323598791  0.3989359588383457
  0.7887518158708220  0.8854499155034617  0.2159334401997173
  0.7779907592024536  0.2358708300731423  0.4741053168669133
  0.1210943055474267  0.9117191247710895  0.4420153839387150
 
  0.00000000E+00  0.00000000E+00  0.00000000E+00
  0.00000000E+00  0.00000000E+00  0.00000000E+00
  0.00000000E+00  0.00000000E+00  0.00000000E+00
  0.00000000E+00  0.00000000E+00  0.00000000E+00
  0.00000000E+00  0.00000000E+00  0.00000000E+00
  0.00000000E+00  0.00000000E+00  0.00000000E+00
  0.00000000E+00  0.00000000E+00  0.00000000E+00
  0.00000000E+00  0.00000000E+00  0.00000000E+00
  0.00000000E+00  0.00000000E+00  0.00000000E+00
  0.00000000E+00  0.00000000E+00  0.00000000E+00
  0.00000000E+00  0.00000000E+00  0.00000000E+00
  0.00000000E+00  0.00000000E+00  0.00000000E+00
  0.00000000E+00  0.00000000E+00  0.00000000E+00
  0.00000000E+00  0.00000000E+00  0.00000000E+00
  0.00000000E+00  0.00000000E+00  0.00000000E+00
  0.00000000E+00  0.00000000E+00  0.00000000E+00
  0.00000000E+00  0.00000000E+00  0.00000000E+00
  0.00000000E+00  0.00000000E+00  0.00000000E+00
  0.00000000E+00  0.00000000E+00  0.00000000E+00
  0.00000000E+00  0.00000000E+00  0.00000000E+00
  0.00000000E+00  0.00000000E+00  0.00000000E+00
  0.00000000E+00  0.00000000E+00  0.00000000E+00
  0.00000000E+00  0.00000000E+00  0.00000000E+00
  0.00000000E+00  0.00000000E+00  0.00000000E+00
  0.00000000E+00  0.00000000E+00  0.00000000E+00
  0.00000000E+00  0.00000000E+00  0.00000000E+00
  0.00000000E+00  0.00000000E+00  0.00000000E+00
  0.00000000E+00  0.00000000E+00  0.00000000E+00
  0.00000000E+00  0.00000000E+00  0.00000000E+00
  0.00000000E+00  0.00000000E+00  0.00000000E+00
  0.00000000E+00  0.00000000E+00  0.00000000E+00
  0.00000000E+00  0.00000000E+00  0.00000000E+00
  0.00000000E+00  0.00000000E+00  0.00000000E+00
  0.00000000E+00  0.00000000E+00  0.00000000E+00
  0.00000000E+00  0.00000000E+00  0.00000000E+00
  0.00000000E+00  0.00000000E+00  0.00000000E+00
  0.00000000E+00  0.00000000E+00  0.00000000E+00
  0.00000000E+00  0.00000000E+00  0.00000000E+00
  0.00000000E+00  0.00000000E+00  0.00000000E+00
  0.00000000E+00  0.00000000E+00  0.00000000E+00
  0.00000000E+00  0.00000000E+00  0.00000000E+00
  0.00000000E+00  0.00000000E+00  0.00000000E+00
  0.00000000E+00  0.00000000E+00  0.00000000E+00
  0.00000000E+00  0.00000000E+00  0.00000000E+00
  0.00000000E+00  0.00000000E+00  0.00000000E+00
  0.00000000E+00  0.00000000E+00  0.00000000E+00
  0.00000000E+00  0.00000000E+00  0.00000000E+00
  0.00000000E+00  0.00000000E+00  0.00000000E+00
  0.00000000E+00  0.00000000E+00  0.00000000E+00
