5L_3x3_(1\1\1)                          
   1.00000000000000     
     8.4506998061999994    0.0000000000000000    0.0000000000000000
    -4.2253499030999997    7.3185207118999998    0.0000000000000000
     0.0000000000000000    0.0000000000000000   24.2000007629000002
   Ir   Pd   Pt   Rh   Ru   H 
     9     8     9     9     9     1
Direct
  0.9975458210637739  0.0066484545510394  0.1261149769917165
  0.1123919812274339  0.2117322361586522  0.2157478859124616
  0.5658699149601371  0.1210072140900754  0.0396812404496833
  0.2434315397153586  0.4532244139569909  0.0405499846589008
  0.5515981906576165  0.4414013685118020  0.0395153690267821
  0.3366845362171653  0.6728489973665124  0.1251689647487436
  0.3428916412195057  0.6876299108340193  0.3938391698828525
  0.5568545952646846  0.7773035821688175  0.0390455866584107
  0.6674652593533048  0.6694371948365037  0.1276693583983704
  0.2237933947416109  0.1164828124581062  0.0343972559667571
  0.2233775080056118  0.1112109334109804  0.3069879353657859
  0.7760559288558608  0.2230432825302591  0.2164945957255711
  0.1098678150447053  0.5567754527073795  0.2170891595190400
  0.3388306144545238  0.3383244251029184  0.4004466511549964
  0.8848465764020775  0.4406981365370475  0.0343286460528246
  0.8902414969062706  0.4407927366257218  0.3125982554142427
  0.2295677820342139  0.7794136089150094  0.0342199007877517
  0.3312561250479602  0.0024293656458705  0.4013856211076279
  0.8941628976443210  0.1119197979772809  0.3099608720239129
  0.2155429564556942  0.4441674417807124  0.3108147737767620
  0.5603537899153364  0.4436116690415778  0.3052894198058786
  0.4443530268179077  0.5503574926951791  0.2144490403238370
  0.9986912015505619  0.6639550699028183  0.1267694153358050
  0.5609510616213599  0.7837788430746300  0.3040917517328605
  0.4485688114095550  0.8983559580087562  0.2158071006106811
  0.6711789832595957  0.6647004066138310  0.3981300512389179
  0.3404192178713600  0.0080726432290735  0.1287108328232903
  0.5572894360376687  0.1142028197307329  0.3100653259759353
  0.6621380235421248 -0.0051162178758230  0.3974051352664718
  0.8765405675552177  0.1034009996392441  0.0368571904134081
  0.0031573314039919  0.3280772630450411  0.1259505466832408
  0.2195853436718193  0.7780344431320817  0.3084121412245742
  0.1055223240682567  0.8922889859081546  0.2148596056076154
  0.8713339534242912  0.7776491711668856  0.0384944801109314
  0.8954987780573914  0.7767996908315477  0.3051671803098389
  0.9942441101291328  0.9695514312224827  0.3947615835829760
  0.4540747689287065  0.2334836036412278  0.2144392113720788
  0.6707326539849233  0.0013251939580588  0.1236575136171147
  0.3308424625673911  0.3238207317535116  0.1273912182607821
  0.6536889297538356  0.3283759687090055  0.1270081365871741
  0.6526467246772134  0.3258861392008077  0.3958758345800224
  0.7666388708430962  0.5550538465245657  0.2139912060661540
  0.0104548941307181  0.6875873517171794  0.3937311975325871
  0.7891806387972554  0.8862122202702928  0.2151446766736780
  0.7587380736006151  0.2120073778551869  0.4291610473073817
 
  0.00000000E+00  0.00000000E+00  0.00000000E+00
  0.00000000E+00  0.00000000E+00  0.00000000E+00
  0.00000000E+00  0.00000000E+00  0.00000000E+00
  0.00000000E+00  0.00000000E+00  0.00000000E+00
  0.00000000E+00  0.00000000E+00  0.00000000E+00
  0.00000000E+00  0.00000000E+00  0.00000000E+00
  0.00000000E+00  0.00000000E+00  0.00000000E+00
  0.00000000E+00  0.00000000E+00  0.00000000E+00
  0.00000000E+00  0.00000000E+00  0.00000000E+00
  0.00000000E+00  0.00000000E+00  0.00000000E+00
  0.00000000E+00  0.00000000E+00  0.00000000E+00
  0.00000000E+00  0.00000000E+00  0.00000000E+00
  0.00000000E+00  0.00000000E+00  0.00000000E+00
  0.00000000E+00  0.00000000E+00  0.00000000E+00
  0.00000000E+00  0.00000000E+00  0.00000000E+00
  0.00000000E+00  0.00000000E+00  0.00000000E+00
  0.00000000E+00  0.00000000E+00  0.00000000E+00
  0.00000000E+00  0.00000000E+00  0.00000000E+00
  0.00000000E+00  0.00000000E+00  0.00000000E+00
  0.00000000E+00  0.00000000E+00  0.00000000E+00
  0.00000000E+00  0.00000000E+00  0.00000000E+00
  0.00000000E+00  0.00000000E+00  0.00000000E+00
  0.00000000E+00  0.00000000E+00  0.00000000E+00
  0.00000000E+00  0.00000000E+00  0.00000000E+00
  0.00000000E+00  0.00000000E+00  0.00000000E+00
  0.00000000E+00  0.00000000E+00  0.00000000E+00
  0.00000000E+00  0.00000000E+00  0.00000000E+00
  0.00000000E+00  0.00000000E+00  0.00000000E+00
  0.00000000E+00  0.00000000E+00  0.00000000E+00
  0.00000000E+00  0.00000000E+00  0.00000000E+00
  0.00000000E+00  0.00000000E+00  0.00000000E+00
  0.00000000E+00  0.00000000E+00  0.00000000E+00
  0.00000000E+00  0.00000000E+00  0.00000000E+00
  0.00000000E+00  0.00000000E+00  0.00000000E+00
  0.00000000E+00  0.00000000E+00  0.00000000E+00
  0.00000000E+00  0.00000000E+00  0.00000000E+00
  0.00000000E+00  0.00000000E+00  0.00000000E+00
  0.00000000E+00  0.00000000E+00  0.00000000E+00
  0.00000000E+00  0.00000000E+00  0.00000000E+00
  0.00000000E+00  0.00000000E+00  0.00000000E+00
  0.00000000E+00  0.00000000E+00  0.00000000E+00
  0.00000000E+00  0.00000000E+00  0.00000000E+00
  0.00000000E+00  0.00000000E+00  0.00000000E+00
  0.00000000E+00  0.00000000E+00  0.00000000E+00
  0.00000000E+00  0.00000000E+00  0.00000000E+00
