step                                    
   1.00000000000000     
     8.4506998061999994    0.0000000000000000    0.0000000000000000
    -4.2253499030999997    7.3185207118999998    0.0000000000000000
     0.0000000000000000    0.0000000000000000   24.2000007629000002
   Ir   Pd   Pt   Rh   Ru   H 
    10     9    10    10     9     1
Direct
  0.9948444326050045  0.0034958463136619  0.1270123692184917
  0.1130562967696044  0.2108473823169517  0.2159918697652380
  0.5649126821539522  0.1207725259710316  0.0403751126641274
  0.2431667723324454  0.4531450413825924  0.0410156664384338
  0.5501956557318131  0.4396139729071655  0.0401225235067007
  0.3360042181067334  0.6711964328931419  0.1254439570757224
  0.3219201963409646  0.6716922645594476  0.3954790252789562
  0.5557974276368836  0.7770127496601541  0.0394368482520908
  0.6675629779335007  0.6697092587026388  0.1281223287308034
  0.8116711527417237  0.9261622724164018  0.4727834029027413
  0.2213884755174692  0.1157185987433263  0.0352992870620926
  0.2231418351385001  0.1095581179594907  0.3066002165859488
  0.7756179492449227  0.2207463380266010  0.2165962835045870
  0.0083781438445438  0.3432101950704616  0.4028647383468535
  0.1099052228933725  0.5573075980572565  0.2165305687351461
  0.3259769009907618  0.3239453528184020  0.4019325054072619
  0.8837894173075579  0.4399819238204565  0.0348758547530056
  0.8860962152353322  0.4454199137412376  0.3085885790390204
  0.2282508314088314  0.7788239999152661  0.0349626342028488
  0.3290329377494123  0.0015282809410967  0.4016986665124430
  0.8882145270482306  0.1039270184151993  0.3111014335668611
  0.2169380196554943  0.4420994979300368  0.3078379938527758
  0.5601174017812468  0.4409064301235212  0.3072185028675055
  0.4441911151391847  0.5492949135763087  0.2150910736610732
  0.9970013885431661  0.6643176908666591  0.1274462035721818
  0.5558299994974405  0.7818525327901017  0.3074206198880627
  0.4509533044725295  0.8945475546481708  0.2160417533179805
  0.6390891368630000  0.6519290290278413  0.4003861677829715
  0.7951365896344044  0.5636761394362753  0.4805910223718927
  0.3392450414175611  0.0065844757307798  0.1293874862637752
  0.5557341913245356  0.1137041327006171  0.3095431881070429
  0.6349459091944221  0.9928808681565352  0.4004133365730406
  0.8732129875636453  0.1021028910659665  0.0373812596491027
  0.0021713323418914  0.3263533872640700  0.1262023592348903
  0.2158758571852002  0.7776607070574402  0.3081897698466283
  0.1064367673465874  0.8915716820975701  0.2165102334174976
  0.8703655842196029  0.7763919478262897  0.0387283015805314
  0.8951101817281757  0.7803707878306579  0.3094016544547093
  0.7740772505606459  0.2133757769247053  0.4807007200246263
  0.0068151896829511  0.9869386075474691  0.3988905329428701
  0.4533463247973179  0.2328411140835283  0.2143638401329730
  0.6701150320966293 -0.0010100529786088  0.1246274963959198
  0.3291186626753432  0.3217557709178195  0.1280367099709841
  0.6537552039267291  0.3293430100256639  0.1277996146081725
  0.6598112029568328  0.3271064751750105  0.3995679097400738
  0.7651499729474134  0.5541457581878892  0.2149316789647918
  0.0109228711784015  0.6696158709423378  0.3986800390773990
  0.7895412943386506  0.8851629851360737  0.2167460577416215
  0.1266376341994217  0.8814445022772815  0.4430706054095282
 
  0.00000000E+00  0.00000000E+00  0.00000000E+00
  0.00000000E+00  0.00000000E+00  0.00000000E+00
  0.00000000E+00  0.00000000E+00  0.00000000E+00
  0.00000000E+00  0.00000000E+00  0.00000000E+00
  0.00000000E+00  0.00000000E+00  0.00000000E+00
  0.00000000E+00  0.00000000E+00  0.00000000E+00
  0.00000000E+00  0.00000000E+00  0.00000000E+00
  0.00000000E+00  0.00000000E+00  0.00000000E+00
  0.00000000E+00  0.00000000E+00  0.00000000E+00
  0.00000000E+00  0.00000000E+00  0.00000000E+00
  0.00000000E+00  0.00000000E+00  0.00000000E+00
  0.00000000E+00  0.00000000E+00  0.00000000E+00
  0.00000000E+00  0.00000000E+00  0.00000000E+00
  0.00000000E+00  0.00000000E+00  0.00000000E+00
  0.00000000E+00  0.00000000E+00  0.00000000E+00
  0.00000000E+00  0.00000000E+00  0.00000000E+00
  0.00000000E+00  0.00000000E+00  0.00000000E+00
  0.00000000E+00  0.00000000E+00  0.00000000E+00
  0.00000000E+00  0.00000000E+00  0.00000000E+00
  0.00000000E+00  0.00000000E+00  0.00000000E+00
  0.00000000E+00  0.00000000E+00  0.00000000E+00
  0.00000000E+00  0.00000000E+00  0.00000000E+00
  0.00000000E+00  0.00000000E+00  0.00000000E+00
  0.00000000E+00  0.00000000E+00  0.00000000E+00
  0.00000000E+00  0.00000000E+00  0.00000000E+00
  0.00000000E+00  0.00000000E+00  0.00000000E+00
  0.00000000E+00  0.00000000E+00  0.00000000E+00
  0.00000000E+00  0.00000000E+00  0.00000000E+00
  0.00000000E+00  0.00000000E+00  0.00000000E+00
  0.00000000E+00  0.00000000E+00  0.00000000E+00
  0.00000000E+00  0.00000000E+00  0.00000000E+00
  0.00000000E+00  0.00000000E+00  0.00000000E+00
  0.00000000E+00  0.00000000E+00  0.00000000E+00
  0.00000000E+00  0.00000000E+00  0.00000000E+00
  0.00000000E+00  0.00000000E+00  0.00000000E+00
  0.00000000E+00  0.00000000E+00  0.00000000E+00
  0.00000000E+00  0.00000000E+00  0.00000000E+00
  0.00000000E+00  0.00000000E+00  0.00000000E+00
  0.00000000E+00  0.00000000E+00  0.00000000E+00
  0.00000000E+00  0.00000000E+00  0.00000000E+00
  0.00000000E+00  0.00000000E+00  0.00000000E+00
  0.00000000E+00  0.00000000E+00  0.00000000E+00
  0.00000000E+00  0.00000000E+00  0.00000000E+00
  0.00000000E+00  0.00000000E+00  0.00000000E+00
  0.00000000E+00  0.00000000E+00  0.00000000E+00
  0.00000000E+00  0.00000000E+00  0.00000000E+00
  0.00000000E+00  0.00000000E+00  0.00000000E+00
  0.00000000E+00  0.00000000E+00  0.00000000E+00
  0.00000000E+00  0.00000000E+00  0.00000000E+00
