step                                    
   1.00000000000000     
     8.4506998061999994    0.0000000000000000    0.0000000000000000
    -4.2253499030999997    7.3185207118999998    0.0000000000000000
     0.0000000000000000    0.0000000000000000   24.2000007629000002
   Ir   Pd   Pt   Rh   Ru   H 
    10     9    10     9    10     1
Direct
  0.9961759606436698  0.0045828487648936  0.1268416216210183
  0.1119113599802282  0.2107161096610337  0.2163258600785728
  0.5654462003330737  0.1204513096702687  0.0403372756016172
  0.2439621977332828  0.4537850097688347  0.0410277125644566
  0.5505451473294737  0.4395213932827573  0.0401496507231596
  0.3349279363068799  0.6714412801922688  0.1252792180962763
  0.3292444979644779  0.6829929651529268  0.3955710868177250
  0.5554808238369915  0.7777004074270566  0.0397240936181495
  0.6667316850588249  0.6680371080502470  0.1281769382050977
  0.8103221440191553  0.5657186967530796  0.4696948169096196
  0.2217488734300780  0.1160418865297430  0.0350587407440731
  0.2196370530831658  0.1076632794049837  0.3079885986530989
  0.7757012641029307  0.2230717675971454  0.2174419331655560
  0.0164226464404976  0.3417795694811407  0.4058275140068967
  0.1080671480248750  0.5560299734919998  0.2168359242925583
  0.3352230697763989  0.3272332281908966  0.4039681577288859
  0.8838601943946317  0.4393896395531663  0.0351458622107503
  0.8854389166748814  0.4445233992246487  0.3129744907573097
  0.2277239539183437  0.7786178190766402  0.0349048529175225
  0.3254189818883785 -0.0049987451253908  0.4010840005767566
  0.8879261359364005  0.1053065659163604  0.3098206628561297
  0.2184889347936352  0.4433848655004884  0.3087371913510588
  0.5592627902546650  0.4422323319011216  0.3078842875547811
  0.4424779146781794  0.5496805854208563  0.2147391878115678
  0.9965910580268911  0.6640022810254710  0.1276097832875185
  0.5550024649173274  0.7842768355374269  0.3053363336636152
  0.4506053807785038  0.8965694860075144  0.2149497729575319
  0.6425627610079020  0.6644092522340345  0.3969587128197163
  0.8008144222310394  0.8684618277187413  0.4847294729247331
  0.3388980117010701  0.0078494642324765  0.1287934522446754
  0.5553307687636843  0.1116709622444476  0.3093977568736817
  0.6569167017965957 -0.0028702478202571  0.4062774695303772
  0.8736991608491168  0.1013910738896397  0.0373650002019713
  0.0026108948186320  0.3263210277185859  0.1263004878380522
  0.2176528084125722  0.7764629147584320  0.3065164365104594
  0.1066200396153501  0.8924109646194710  0.2163825244819875
  0.8698907673266372  0.7766184466636574  0.0389319021906415
  0.8943744772449745  0.7766709304854741  0.3076938751236643
 -0.0088223510996400  0.9805355526521687  0.3986547292143559
  0.4535119126343271  0.2327306146712506  0.2150067098724272
  0.6712087297949504  0.0009075000771040  0.1248738002210617
  0.3295047744105593  0.3217738503552582  0.1283597245810127
  0.6535892350580872  0.3295351074187551  0.1280099836165734
  0.6356444712764524  0.2982170844979918  0.3998297922035431
  0.7648744546368432  0.5544645413084422  0.2151944734372373
  0.0247707378835248  0.6849138771915677  0.3984505219052025
  0.7891148052401198  0.8857257686578112  0.2159327280350367
  0.7757252759502501  0.2629403694901749  0.4792011875244687
  0.1077321381210977  0.1993868394771858  0.4357436928778151
 
  0.00000000E+00  0.00000000E+00  0.00000000E+00
  0.00000000E+00  0.00000000E+00  0.00000000E+00
  0.00000000E+00  0.00000000E+00  0.00000000E+00
  0.00000000E+00  0.00000000E+00  0.00000000E+00
  0.00000000E+00  0.00000000E+00  0.00000000E+00
  0.00000000E+00  0.00000000E+00  0.00000000E+00
  0.00000000E+00  0.00000000E+00  0.00000000E+00
  0.00000000E+00  0.00000000E+00  0.00000000E+00
  0.00000000E+00  0.00000000E+00  0.00000000E+00
  0.00000000E+00  0.00000000E+00  0.00000000E+00
  0.00000000E+00  0.00000000E+00  0.00000000E+00
  0.00000000E+00  0.00000000E+00  0.00000000E+00
  0.00000000E+00  0.00000000E+00  0.00000000E+00
  0.00000000E+00  0.00000000E+00  0.00000000E+00
  0.00000000E+00  0.00000000E+00  0.00000000E+00
  0.00000000E+00  0.00000000E+00  0.00000000E+00
  0.00000000E+00  0.00000000E+00  0.00000000E+00
  0.00000000E+00  0.00000000E+00  0.00000000E+00
  0.00000000E+00  0.00000000E+00  0.00000000E+00
  0.00000000E+00  0.00000000E+00  0.00000000E+00
  0.00000000E+00  0.00000000E+00  0.00000000E+00
  0.00000000E+00  0.00000000E+00  0.00000000E+00
  0.00000000E+00  0.00000000E+00  0.00000000E+00
  0.00000000E+00  0.00000000E+00  0.00000000E+00
  0.00000000E+00  0.00000000E+00  0.00000000E+00
  0.00000000E+00  0.00000000E+00  0.00000000E+00
  0.00000000E+00  0.00000000E+00  0.00000000E+00
  0.00000000E+00  0.00000000E+00  0.00000000E+00
  0.00000000E+00  0.00000000E+00  0.00000000E+00
  0.00000000E+00  0.00000000E+00  0.00000000E+00
  0.00000000E+00  0.00000000E+00  0.00000000E+00
  0.00000000E+00  0.00000000E+00  0.00000000E+00
  0.00000000E+00  0.00000000E+00  0.00000000E+00
  0.00000000E+00  0.00000000E+00  0.00000000E+00
  0.00000000E+00  0.00000000E+00  0.00000000E+00
  0.00000000E+00  0.00000000E+00  0.00000000E+00
  0.00000000E+00  0.00000000E+00  0.00000000E+00
  0.00000000E+00  0.00000000E+00  0.00000000E+00
  0.00000000E+00  0.00000000E+00  0.00000000E+00
  0.00000000E+00  0.00000000E+00  0.00000000E+00
  0.00000000E+00  0.00000000E+00  0.00000000E+00
  0.00000000E+00  0.00000000E+00  0.00000000E+00
  0.00000000E+00  0.00000000E+00  0.00000000E+00
  0.00000000E+00  0.00000000E+00  0.00000000E+00
  0.00000000E+00  0.00000000E+00  0.00000000E+00
  0.00000000E+00  0.00000000E+00  0.00000000E+00
  0.00000000E+00  0.00000000E+00  0.00000000E+00
  0.00000000E+00  0.00000000E+00  0.00000000E+00
  0.00000000E+00  0.00000000E+00  0.00000000E+00
