5L_3x3_(1\1\1)                          
   1.00000000000000     
     8.4506998061999994    0.0000000000000000    0.0000000000000000
    -4.2253499030999997    7.3185207118999998    0.0000000000000000
     0.0000000000000000    0.0000000000000000   24.2000007629000002
   Ir   Pd   Pt   Rh   Ru
     9     9     9     9     9
Direct
  0.6985405974872498  0.6477427084099293  0.0291855714515281
  0.9077041207902242  0.1180033438454121  0.3250685895142908
  0.4811244327119034  0.5786296145144958  0.4056696313858749
  0.5908124779737323  0.7915088007184418  0.3214223341669545
  0.0248126836497947  0.3531873846206214  0.2337165502200374
  0.2108788749329401  0.1709847932604062  0.2645921406324802
  0.4103203553577209  0.6057907606041735  0.0891317637296415
  0.3113757588673283  0.7507210847254261  0.3835621729337417
  0.0554042611707492  0.6398787740145518  0.3033052532715422
  0.8937575354688942  0.4701485336224805  0.0422110187816488
  0.7100302707432989  0.2997117770500827  0.2915671971246383
 -0.1212365191770391  0.8189404604195429  0.2653153440662347
  0.7530744207045856  0.9435413951358117  0.0848181319659384
  0.7926515961887416  0.2400180535509403  0.1415238519992554
  0.3474423661606701  0.6740161682064378  0.2352047246925223
  0.6843247638147905  0.0105713701342616  0.2329053257863027
  0.5664851350421167  0.1245247843064891  0.0431839777201138
  0.1674105469833539  0.8629569222745169  0.2044047361651797
  0.8341481441999385  0.5255122883875871  0.2041031055739861
  0.6459211155371689  0.7088724905403631  0.1746062981468706
  0.2218519369983730  0.4368156900960426  0.3286529324889993
  0.8921020010107101  0.1760537517066143 -0.0037552817306096
  0.2279801765090078  0.7933648233420567  0.0502459639461936
  0.4576825434492828  0.9062487482822795  0.1427663394462797
  0.9889868963782023  0.0541409215630264  0.1738147506280222
  0.3868368622302448  0.3227476584877219  0.0259056207002067
  0.0477434761436861  0.9765281570642175  0.0257732135663815
  0.6088935595678218  0.4213484827508857  0.1155453141290991
  0.0976155627249192  0.2819808342136051  0.0855885129645014
  0.4225158606738614  0.2689279647667378  0.3539891870772067
  0.5266340005590442  0.4863899442327628  0.2638668694531776
  0.1200174770319694  0.5664232547883553  0.1415560995056304
  0.2796090019803846  0.0887334380994057  0.1135465099520104
  0.3740889920545519 -0.0251622229667913  0.2969307467121954
  0.9112546993023307  0.3853293755646797  0.3820964084287710
  0.6107863785173184  0.0677131523908466  0.3784185295245777
  0.3091076742798621  0.3700925397748416  0.1728019804090504
  0.2188276314190486  0.5062566751091562  0.0012385623354062
  0.8051902006466922  0.8771798963148233  0.4041792257925543
  0.7388887546855424  0.5809247781726036  0.3545358038917573
  0.0169125058604472  0.7082971989254829  0.4108865897166299
  0.9341892169243836  0.7431330727877485  0.1110084192901833
  0.5145651292774251  0.7837639250718071 -0.0027062275503883
  0.4799880375018794  0.1949974846741594  0.2026988608186029
  0.0960760936648517 -0.0279871595550537  0.3538255831747668
 
  0.00000000E+00  0.00000000E+00  0.00000000E+00
  0.00000000E+00  0.00000000E+00  0.00000000E+00
  0.00000000E+00  0.00000000E+00  0.00000000E+00
  0.00000000E+00  0.00000000E+00  0.00000000E+00
  0.00000000E+00  0.00000000E+00  0.00000000E+00
  0.00000000E+00  0.00000000E+00  0.00000000E+00
  0.00000000E+00  0.00000000E+00  0.00000000E+00
  0.00000000E+00  0.00000000E+00  0.00000000E+00
  0.00000000E+00  0.00000000E+00  0.00000000E+00
  0.00000000E+00  0.00000000E+00  0.00000000E+00
  0.00000000E+00  0.00000000E+00  0.00000000E+00
  0.00000000E+00  0.00000000E+00  0.00000000E+00
  0.00000000E+00  0.00000000E+00  0.00000000E+00
  0.00000000E+00  0.00000000E+00  0.00000000E+00
  0.00000000E+00  0.00000000E+00  0.00000000E+00
  0.00000000E+00  0.00000000E+00  0.00000000E+00
  0.00000000E+00  0.00000000E+00  0.00000000E+00
  0.00000000E+00  0.00000000E+00  0.00000000E+00
  0.00000000E+00  0.00000000E+00  0.00000000E+00
  0.00000000E+00  0.00000000E+00  0.00000000E+00
  0.00000000E+00  0.00000000E+00  0.00000000E+00
  0.00000000E+00  0.00000000E+00  0.00000000E+00
  0.00000000E+00  0.00000000E+00  0.00000000E+00
  0.00000000E+00  0.00000000E+00  0.00000000E+00
  0.00000000E+00  0.00000000E+00  0.00000000E+00
  0.00000000E+00  0.00000000E+00  0.00000000E+00
  0.00000000E+00  0.00000000E+00  0.00000000E+00
  0.00000000E+00  0.00000000E+00  0.00000000E+00
  0.00000000E+00  0.00000000E+00  0.00000000E+00
  0.00000000E+00  0.00000000E+00  0.00000000E+00
  0.00000000E+00  0.00000000E+00  0.00000000E+00
  0.00000000E+00  0.00000000E+00  0.00000000E+00
  0.00000000E+00  0.00000000E+00  0.00000000E+00
  0.00000000E+00  0.00000000E+00  0.00000000E+00
  0.00000000E+00  0.00000000E+00  0.00000000E+00
  0.00000000E+00  0.00000000E+00  0.00000000E+00
  0.00000000E+00  0.00000000E+00  0.00000000E+00
  0.00000000E+00  0.00000000E+00  0.00000000E+00
  0.00000000E+00  0.00000000E+00  0.00000000E+00
  0.00000000E+00  0.00000000E+00  0.00000000E+00
  0.00000000E+00  0.00000000E+00  0.00000000E+00
  0.00000000E+00  0.00000000E+00  0.00000000E+00
  0.00000000E+00  0.00000000E+00  0.00000000E+00
  0.00000000E+00  0.00000000E+00  0.00000000E+00
  0.00000000E+00  0.00000000E+00  0.00000000E+00
