5L_3x3_(1\1\1)                          
   1.00000000000000     
     8.4506998061999994    0.0000000000000000    0.0000000000000000
    -4.2253499030999997    7.3185207118999998    0.0000000000000000
     0.0000000000000000    0.0000000000000000   24.2000007629000002
   Ir   Pd   Pt   Rh   Ru
     9     9     9     9     9
Direct
  0.6139763055880261  0.7225085285526767  0.0999307659242832
  0.5845058122949942  0.4814879795787329  0.3624444083295285
  0.8940198617111192  0.7091236631026463  0.3843286187126378
  0.1425712061638413  0.7614250219894684  0.0235177854439872
  0.6383220846771810  0.7028993488751587  0.2713923881640936
  0.9365232107659457  0.3858822256201332  0.1775642076118847
  0.7622944168277873  0.0927810660301962  0.1111330340240982
  0.1532787982269891  0.7464115039233671  0.3229361499146260
  0.4152620123787126  0.8770031799957209  0.0899272502913050
  0.9473773667979484  0.1424061931300247  0.3649805460204559
  0.2676306462762297  0.3559968442380184  0.4073096252437955
  0.0954488395944773  0.1924013722068297  0.1589273464703178
 -0.0077782480747043  0.9325182297909577  0.0759971979999907
  0.8622874979440122  0.8403380782756937  0.1811646138869931
  0.0798539133359365  0.2695795255726959  0.0268587317280044
  0.7600400587275908  0.6061993386405201  0.0192062983801085
  0.6453610296718879  0.8229090907138705  0.3753477028640891
  0.8283305724565785  0.0842122321860287  0.2474435098677270
  0.7443923315881724  0.9324736892811140  0.0081960327543579
  0.2698925210311742  0.1084057518359876  0.0036104204767784
  0.2027058828718991  0.2579949035766254  0.2686815024470805
  0.6937701556135977  0.2366204955760617  0.3513243641117064
  0.4637763971054379  0.9580555258940668 -0.0235295093075449
  0.7097584131282398  0.4830920174933160  0.1368441137401498
  0.3318904876745628  0.1123378955721866  0.3422958822297699
  0.2289331483143999  0.9619883392389065  0.2293311598938224
  0.4358832231806350  0.4830634635276349  0.1901817943804209
  0.4175644803696337  0.3864696578233231  0.0693281652727253
  0.2355053446508808  0.5317940180146811  0.1167615116332080
  0.3325488335198865  0.1012698141719329  0.1291860424328363
  0.3811896272595343  0.6346927233836971  0.0154786957861885
  0.5915665318226904  0.1682105124652641  0.1977305759865310
  0.9315606755365334  0.4514956999386006  0.0661519700404985
  0.8915240815682431  0.6029353234685561  0.2451375821114656
  0.0152712843945789  0.4827500315644216  0.3933944505332024
  0.4898724992137534  0.9228010446153930  0.2937530705852053
  0.0901715958426997  0.7291118364098479  0.1392810316664611
  0.5430640998893514  0.8500987195947024  0.1890878845152666
  0.7912256878215974  0.2476724394911114 -0.0206075952911956
  0.0004526543233853  0.4039477559018354  0.2929062914394197
  0.5593856382244669  0.3565644445128153  0.2676358115048965
  0.2271263645687024  0.6382164761561103  0.2229984245738584
 -0.0297249138072714  0.9084832031780495  0.3017361971973070
  0.5941655180044675  0.2239929589077919  0.0536197126362279
  0.3349657719242120  0.5733670069832243  0.3237782647714458
 
  0.00000000E+00  0.00000000E+00  0.00000000E+00
  0.00000000E+00  0.00000000E+00  0.00000000E+00
  0.00000000E+00  0.00000000E+00  0.00000000E+00
  0.00000000E+00  0.00000000E+00  0.00000000E+00
  0.00000000E+00  0.00000000E+00  0.00000000E+00
  0.00000000E+00  0.00000000E+00  0.00000000E+00
  0.00000000E+00  0.00000000E+00  0.00000000E+00
  0.00000000E+00  0.00000000E+00  0.00000000E+00
  0.00000000E+00  0.00000000E+00  0.00000000E+00
  0.00000000E+00  0.00000000E+00  0.00000000E+00
  0.00000000E+00  0.00000000E+00  0.00000000E+00
  0.00000000E+00  0.00000000E+00  0.00000000E+00
  0.00000000E+00  0.00000000E+00  0.00000000E+00
  0.00000000E+00  0.00000000E+00  0.00000000E+00
  0.00000000E+00  0.00000000E+00  0.00000000E+00
  0.00000000E+00  0.00000000E+00  0.00000000E+00
  0.00000000E+00  0.00000000E+00  0.00000000E+00
  0.00000000E+00  0.00000000E+00  0.00000000E+00
  0.00000000E+00  0.00000000E+00  0.00000000E+00
  0.00000000E+00  0.00000000E+00  0.00000000E+00
  0.00000000E+00  0.00000000E+00  0.00000000E+00
  0.00000000E+00  0.00000000E+00  0.00000000E+00
  0.00000000E+00  0.00000000E+00  0.00000000E+00
  0.00000000E+00  0.00000000E+00  0.00000000E+00
  0.00000000E+00  0.00000000E+00  0.00000000E+00
  0.00000000E+00  0.00000000E+00  0.00000000E+00
  0.00000000E+00  0.00000000E+00  0.00000000E+00
  0.00000000E+00  0.00000000E+00  0.00000000E+00
  0.00000000E+00  0.00000000E+00  0.00000000E+00
  0.00000000E+00  0.00000000E+00  0.00000000E+00
  0.00000000E+00  0.00000000E+00  0.00000000E+00
  0.00000000E+00  0.00000000E+00  0.00000000E+00
  0.00000000E+00  0.00000000E+00  0.00000000E+00
  0.00000000E+00  0.00000000E+00  0.00000000E+00
  0.00000000E+00  0.00000000E+00  0.00000000E+00
  0.00000000E+00  0.00000000E+00  0.00000000E+00
  0.00000000E+00  0.00000000E+00  0.00000000E+00
  0.00000000E+00  0.00000000E+00  0.00000000E+00
  0.00000000E+00  0.00000000E+00  0.00000000E+00
  0.00000000E+00  0.00000000E+00  0.00000000E+00
  0.00000000E+00  0.00000000E+00  0.00000000E+00
  0.00000000E+00  0.00000000E+00  0.00000000E+00
  0.00000000E+00  0.00000000E+00  0.00000000E+00
  0.00000000E+00  0.00000000E+00  0.00000000E+00
  0.00000000E+00  0.00000000E+00  0.00000000E+00
