5L_3x3_(1\1\1)                          
   1.00000000000000     
     8.4506998061999994    0.0000000000000000    0.0000000000000000
    -4.2253499030999997    7.3185207118999998    0.0000000000000000
     0.0000000000000000    0.0000000000000000   24.2000007629000002
   Ir   Pd   Pt   Rh   Ru   H 
     9     9     8     9     9     1
Direct
  0.9972320061678058  0.0034691855098710  0.1259597597204457
  0.1101075927765637  0.2108168566313428  0.2153561315553676
  0.5656551950806642  0.1203978999502421  0.0396721574862346
  0.2437609489124182  0.4534250328300518  0.0407104736185687
  0.5510037096677637  0.4401118910167541  0.0390866277020402
  0.3383563882568576  0.6728136786458431  0.1250885985345758
  0.3194024856418411  0.6673811563341669  0.3940483642195953
  0.5566566567299459  0.7776061373976878  0.0383688730726974
  0.6652898035480246  0.6680226453556296  0.1272453943197251
  0.2230231314091630  0.1156787865131174  0.0345930141775911
  0.2235866932650306  0.1037995905699059  0.3107556813886787
  0.7753379412238979  0.2231813638250672  0.2151642573470525
  0.9954507219118894  0.3225455217279173  0.4024584927993504
  0.1134006825671137  0.5603134377025517  0.2154451418134044
  0.3357220381661926  0.3359306464177114  0.3993689175510201
  0.8843032184474616  0.4398119056362123  0.0344831018805259
  0.8947043967746804  0.4475751087616989  0.3054246541942800
  0.2296624196955321  0.7792982477813825  0.0342073336520629
  0.8883190061977601  0.1081591979728389  0.3059598052580602
  0.2196236318129316  0.4394820692466018  0.3065766994477129
  0.5603174613348615  0.4393411969213707  0.3063058331833494
  0.4472480232612346  0.5511671207932530  0.2151982322873356
  0.9982559657803186  0.6655508767102273  0.1264872250948646
  0.5552232326057405  0.7796470017960110  0.3062853095973577
  0.4498275266025186  0.8973559874696092  0.2162117507223467
  0.6638517663252506  0.6651697812554516  0.4007591736858706
  0.3403158594607120  0.0072948298349176  0.1289219992237687
  0.5506860461306826  0.1104881077323050  0.3135397479789987
  0.6637660510453689  0.9907800718336166  0.3965007258206023
  0.8762300937218587  0.1029564271378401  0.0369554357088077
  0.0036991685204198  0.3270280892662764  0.1251497304657376
  0.2290691145550136  0.7909523030301789  0.3115242443841690
  0.1061051922395820  0.8921894951126677  0.2157727926149874
  0.8699509354157393  0.7758739093586918  0.0378227653750563
  0.8964617839540441  0.7783214623411063  0.3067573370568564
  0.9753494708409843  0.9815361537717805  0.3935847876530758
  0.4512551917796996  0.2312739392014750  0.2146718478133562
  0.6699603431886733 -0.0002942742371701  0.1238464138809171
  0.3322075341903331  0.3237481237445172  0.1277916400267505
  0.6515505903151457  0.3288186190217521  0.1270903262179540
  0.6852653895540157  0.3454106071983050  0.3931332286563400
  0.7669573910383478  0.5553750476664487  0.2136252446651620
  0.0042025869433846  0.6630502485589597  0.3930220611505941
  0.7904224953400821  0.8883052764257029  0.2147485091264057
  0.7684566989982897  0.5626005227792983  0.4381949867777664
 
  0.00000000E+00  0.00000000E+00  0.00000000E+00
  0.00000000E+00  0.00000000E+00  0.00000000E+00
  0.00000000E+00  0.00000000E+00  0.00000000E+00
  0.00000000E+00  0.00000000E+00  0.00000000E+00
  0.00000000E+00  0.00000000E+00  0.00000000E+00
  0.00000000E+00  0.00000000E+00  0.00000000E+00
  0.00000000E+00  0.00000000E+00  0.00000000E+00
  0.00000000E+00  0.00000000E+00  0.00000000E+00
  0.00000000E+00  0.00000000E+00  0.00000000E+00
  0.00000000E+00  0.00000000E+00  0.00000000E+00
  0.00000000E+00  0.00000000E+00  0.00000000E+00
  0.00000000E+00  0.00000000E+00  0.00000000E+00
  0.00000000E+00  0.00000000E+00  0.00000000E+00
  0.00000000E+00  0.00000000E+00  0.00000000E+00
  0.00000000E+00  0.00000000E+00  0.00000000E+00
  0.00000000E+00  0.00000000E+00  0.00000000E+00
  0.00000000E+00  0.00000000E+00  0.00000000E+00
  0.00000000E+00  0.00000000E+00  0.00000000E+00
  0.00000000E+00  0.00000000E+00  0.00000000E+00
  0.00000000E+00  0.00000000E+00  0.00000000E+00
  0.00000000E+00  0.00000000E+00  0.00000000E+00
  0.00000000E+00  0.00000000E+00  0.00000000E+00
  0.00000000E+00  0.00000000E+00  0.00000000E+00
  0.00000000E+00  0.00000000E+00  0.00000000E+00
  0.00000000E+00  0.00000000E+00  0.00000000E+00
  0.00000000E+00  0.00000000E+00  0.00000000E+00
  0.00000000E+00  0.00000000E+00  0.00000000E+00
  0.00000000E+00  0.00000000E+00  0.00000000E+00
  0.00000000E+00  0.00000000E+00  0.00000000E+00
  0.00000000E+00  0.00000000E+00  0.00000000E+00
  0.00000000E+00  0.00000000E+00  0.00000000E+00
  0.00000000E+00  0.00000000E+00  0.00000000E+00
  0.00000000E+00  0.00000000E+00  0.00000000E+00
  0.00000000E+00  0.00000000E+00  0.00000000E+00
  0.00000000E+00  0.00000000E+00  0.00000000E+00
  0.00000000E+00  0.00000000E+00  0.00000000E+00
  0.00000000E+00  0.00000000E+00  0.00000000E+00
  0.00000000E+00  0.00000000E+00  0.00000000E+00
  0.00000000E+00  0.00000000E+00  0.00000000E+00
  0.00000000E+00  0.00000000E+00  0.00000000E+00
  0.00000000E+00  0.00000000E+00  0.00000000E+00
  0.00000000E+00  0.00000000E+00  0.00000000E+00
  0.00000000E+00  0.00000000E+00  0.00000000E+00
  0.00000000E+00  0.00000000E+00  0.00000000E+00
  0.00000000E+00  0.00000000E+00  0.00000000E+00
