5L_3x3_(1\1\1)                          
   1.00000000000000     
     8.4506998061999994    0.0000000000000000    0.0000000000000000
    -4.2253499030999997    7.3185207118999998    0.0000000000000000
     0.0000000000000000    0.0000000000000000   24.2000007629000002
   Ir   Pd   Pt   Rh   Ru   H 
     9     9     8     9     9     1
Direct
  0.5560460836158035  0.1057861143033276  0.0399193979537839
  0.5408852300196793  0.0999169137050791  0.3088369332419503
  0.7749566752726335  0.2291379205209286  0.2179322589633724
  0.0088445307806216  0.3631344892524125  0.3932944790516043
  0.3243422933646005  0.3293596756233460  0.1267711763670784
  0.8827515640337674  0.4550967145696403  0.3084186448715366
  0.9976203342141292  0.6563032826931362  0.1256911938978973
  0.3306192965287730  0.6499320433789050  0.3918271795797127
  0.8906122856023970  0.7745557437055671  0.3082603577811414
 -0.0018629817678543  0.0083367164563349  0.3971187089010665
  0.2254405380886132  0.1130626265971755  0.0319391840723678
  0.3351005710536118  0.0046923615158409  0.4001354509920126
  0.6529136565584889  0.9876944514452874  0.4002168529066150
  0.2244061099431020  0.4401558566473195  0.3033021293008263
  0.8886022960851737  0.4410636923207772  0.0330610110654384
  0.1049138197983484  0.8808650329800274  0.2160901218885842
  0.4465211693673532  0.8876014325288673  0.2175535456746241
  0.7746923967183326  0.8866661263469386  0.2166140227495917
  0.0029555570112528  0.0037539953949514  0.1260759073086211
  0.8826171163249434  0.1071387885697221  0.3061681174193849
  0.1019407915514703  0.5442769312162414  0.2162526786518177
  0.3328023890178101  0.6653159492228485  0.1280937161880452
  0.5561604483661540  0.7817401769982293  0.0357762900992641
  0.6665129821232786  0.6626801349534780  0.1278148805470779
  0.6509240146666359  0.6535286937575752  0.3941969767484246
  0.8870368136851152  0.7707330629052546  0.0360754041090946
  0.3351224008561198  0.0019341537570760  0.1261028335044900
  0.4414655366304160  0.2281274715883806  0.2178356038578451
  0.8806505814418731  0.1162098285855225  0.0383369416308912
  0.3301971401727621  0.3303943329748663  0.3932183122258573
  0.5432810817610622  0.4355675717303817  0.0381269723766628
  0.5596568104721193  0.4368495973156186  0.3059149098768040
  0.6669295465823388  0.3275873690009342  0.1277950668361029
  0.2266547094585036  0.7739224532209560  0.0378909819508541
  0.2117425276910379  0.7795066157034451  0.3109993962865693
  0.2164489340267900  0.0956483436519174  0.3061528401942844
  0.1238765556714734  0.2294823882662100  0.2165836547223355
  0.6755551973956078  0.0192628555999937  0.1270574524486493
  0.9962621771957633  0.3221393085677767  0.1262924043685935
  0.2243992059793478  0.4422328123434989  0.0416175729583557
  0.4514935808885032  0.5442192141124969  0.2168601275620311
  0.6780313676585650  0.3324581029690075  0.3919774578783840
  0.7658422795337210  0.5421444954367212  0.2167728430091249
  0.5530197280872048  0.7745043352014346  0.3060517632694915
  0.8650629342818312  0.3478581898296987  0.4439335392355393
 
  0.00000000E+00  0.00000000E+00  0.00000000E+00
  0.00000000E+00  0.00000000E+00  0.00000000E+00
  0.00000000E+00  0.00000000E+00  0.00000000E+00
  0.00000000E+00  0.00000000E+00  0.00000000E+00
  0.00000000E+00  0.00000000E+00  0.00000000E+00
  0.00000000E+00  0.00000000E+00  0.00000000E+00
  0.00000000E+00  0.00000000E+00  0.00000000E+00
  0.00000000E+00  0.00000000E+00  0.00000000E+00
  0.00000000E+00  0.00000000E+00  0.00000000E+00
  0.00000000E+00  0.00000000E+00  0.00000000E+00
  0.00000000E+00  0.00000000E+00  0.00000000E+00
  0.00000000E+00  0.00000000E+00  0.00000000E+00
  0.00000000E+00  0.00000000E+00  0.00000000E+00
  0.00000000E+00  0.00000000E+00  0.00000000E+00
  0.00000000E+00  0.00000000E+00  0.00000000E+00
  0.00000000E+00  0.00000000E+00  0.00000000E+00
  0.00000000E+00  0.00000000E+00  0.00000000E+00
  0.00000000E+00  0.00000000E+00  0.00000000E+00
  0.00000000E+00  0.00000000E+00  0.00000000E+00
  0.00000000E+00  0.00000000E+00  0.00000000E+00
  0.00000000E+00  0.00000000E+00  0.00000000E+00
  0.00000000E+00  0.00000000E+00  0.00000000E+00
  0.00000000E+00  0.00000000E+00  0.00000000E+00
  0.00000000E+00  0.00000000E+00  0.00000000E+00
  0.00000000E+00  0.00000000E+00  0.00000000E+00
  0.00000000E+00  0.00000000E+00  0.00000000E+00
  0.00000000E+00  0.00000000E+00  0.00000000E+00
  0.00000000E+00  0.00000000E+00  0.00000000E+00
  0.00000000E+00  0.00000000E+00  0.00000000E+00
  0.00000000E+00  0.00000000E+00  0.00000000E+00
  0.00000000E+00  0.00000000E+00  0.00000000E+00
  0.00000000E+00  0.00000000E+00  0.00000000E+00
  0.00000000E+00  0.00000000E+00  0.00000000E+00
  0.00000000E+00  0.00000000E+00  0.00000000E+00
  0.00000000E+00  0.00000000E+00  0.00000000E+00
  0.00000000E+00  0.00000000E+00  0.00000000E+00
  0.00000000E+00  0.00000000E+00  0.00000000E+00
  0.00000000E+00  0.00000000E+00  0.00000000E+00
  0.00000000E+00  0.00000000E+00  0.00000000E+00
  0.00000000E+00  0.00000000E+00  0.00000000E+00
  0.00000000E+00  0.00000000E+00  0.00000000E+00
  0.00000000E+00  0.00000000E+00  0.00000000E+00
  0.00000000E+00  0.00000000E+00  0.00000000E+00
  0.00000000E+00  0.00000000E+00  0.00000000E+00
  0.00000000E+00  0.00000000E+00  0.00000000E+00
