step                                    
   1.00000000000000     
     8.4506998061999994    0.0000000000000000    0.0000000000000000
    -4.2253499030999997    7.3185207118999998    0.0000000000000000
     0.0000000000000000    0.0000000000000000   24.2000007629000002
   Ir   Pd   Pt   Rh   Ru   H 
     9    10     9    10    10     1
Direct
  0.5560578537910209  0.1083462207032182  0.0385851339170301
  0.5466540904700155  0.1116650427733200  0.3071805732957912
  0.7731981824307934  0.2288079437896201  0.2167460538662155
  0.0265118131716057  0.3508195141590845  0.3969155116960235
  0.3251879216116506  0.3297732860773507  0.1254871592501904
  0.8717293474595366  0.4371516662944622  0.3074909501875459
  0.9972120666210964  0.6577815771867841  0.1247937773667579
  0.3307996589157154  0.6548145011425547  0.3913932597998277
  0.8884220738618398  0.7766333672083117  0.3059583180549807
  0.0028111096647041  0.0069989797878816  0.3988151071592091
  0.2255136541046293  0.1141303254574475  0.0308807504062669
  0.3332262780106727  0.0073264108500883  0.3999273204590861
  0.6405156504039863 -0.0149979802684775  0.3959345001660716
  0.2253194623798477  0.4428681281822437  0.3026700230796934
  0.8891408127785981  0.4420452855990000  0.0320320767677588
  0.1072979069127563  0.8841404848773562  0.2153444955553254
  0.4489182983430354  0.8887426242346591  0.2155475490210575
  0.7762535147351040  0.8898818557256751  0.2157715879786772
  0.7738600348477777  0.9147464626705368  0.4841025412960131
  0.0031343415007070  0.0050918786254795  0.1251728008365036
  0.8873233723823452  0.1105221886913323  0.3061179233993299
  0.1001985318461945  0.5455915183787436  0.2159599176215901
  0.0106428254628907  0.6672536010254736  0.3975450668225731
  0.3315766356978059  0.6657731893421120  0.1272802031137060
  0.5552228729098037  0.7813363424341209  0.0350367120783430
  0.6675501444939970  0.6634809135145529  0.1269592098614123
  0.6553909848382595  0.6601575529673860  0.3988070091291401
  0.8874058749415122  0.7724021993177440  0.0351967060658127
  0.3365490901850733  0.0042741879379568  0.1252650808652376
  0.4432247620223859  0.2318606126576986  0.2166451005288881
  0.8821871431331211  0.1172602276050302  0.0368778332648424
  0.3363607290595568  0.3396468432642615  0.3943911703568186
  0.5440899536497575  0.4351372269949645  0.0370605222255307
  0.5601774071255267  0.4477383197025437  0.3056629873436464
  0.6685601252930331  0.3292937069270140  0.1269777293065429
  0.2269875384759805  0.7751001217938689  0.0372775347656687
  0.2241407108332839  0.7874483899422883  0.3078996890353510
  0.7878706558368865  0.5369477526796285  0.4794370390053909
  0.2167587885040364  0.0982453405774683  0.3052121279339296
  0.1262012961874728  0.2332844784536626  0.2154326580340047
  0.6783247208123816  0.0216175857901160  0.1245078814712425
  0.9962430323738968  0.3227726521894172  0.1252907244544891
  0.2262331495683466  0.4460862778874285  0.0406005284660567
  0.4496787714738084  0.5452676317666454  0.2146715159345979
  0.6434763705719766  0.3342619232869639  0.3981330823359814
  0.7661985706933805  0.5447287067369891  0.2168362050089551
  0.5562595993660250  0.7731884498120487  0.3045458627182818
  0.8108169996815932  0.2480626346317222  0.4664338740685826
  0.8814751805645766  0.4235813116142192  0.5167886236240212
 
  0.00000000E+00  0.00000000E+00  0.00000000E+00
  0.00000000E+00  0.00000000E+00  0.00000000E+00
  0.00000000E+00  0.00000000E+00  0.00000000E+00
  0.00000000E+00  0.00000000E+00  0.00000000E+00
  0.00000000E+00  0.00000000E+00  0.00000000E+00
  0.00000000E+00  0.00000000E+00  0.00000000E+00
  0.00000000E+00  0.00000000E+00  0.00000000E+00
  0.00000000E+00  0.00000000E+00  0.00000000E+00
  0.00000000E+00  0.00000000E+00  0.00000000E+00
  0.00000000E+00  0.00000000E+00  0.00000000E+00
  0.00000000E+00  0.00000000E+00  0.00000000E+00
  0.00000000E+00  0.00000000E+00  0.00000000E+00
  0.00000000E+00  0.00000000E+00  0.00000000E+00
  0.00000000E+00  0.00000000E+00  0.00000000E+00
  0.00000000E+00  0.00000000E+00  0.00000000E+00
  0.00000000E+00  0.00000000E+00  0.00000000E+00
  0.00000000E+00  0.00000000E+00  0.00000000E+00
  0.00000000E+00  0.00000000E+00  0.00000000E+00
  0.00000000E+00  0.00000000E+00  0.00000000E+00
  0.00000000E+00  0.00000000E+00  0.00000000E+00
  0.00000000E+00  0.00000000E+00  0.00000000E+00
  0.00000000E+00  0.00000000E+00  0.00000000E+00
  0.00000000E+00  0.00000000E+00  0.00000000E+00
  0.00000000E+00  0.00000000E+00  0.00000000E+00
  0.00000000E+00  0.00000000E+00  0.00000000E+00
  0.00000000E+00  0.00000000E+00  0.00000000E+00
  0.00000000E+00  0.00000000E+00  0.00000000E+00
  0.00000000E+00  0.00000000E+00  0.00000000E+00
  0.00000000E+00  0.00000000E+00  0.00000000E+00
  0.00000000E+00  0.00000000E+00  0.00000000E+00
  0.00000000E+00  0.00000000E+00  0.00000000E+00
  0.00000000E+00  0.00000000E+00  0.00000000E+00
  0.00000000E+00  0.00000000E+00  0.00000000E+00
  0.00000000E+00  0.00000000E+00  0.00000000E+00
  0.00000000E+00  0.00000000E+00  0.00000000E+00
  0.00000000E+00  0.00000000E+00  0.00000000E+00
  0.00000000E+00  0.00000000E+00  0.00000000E+00
  0.00000000E+00  0.00000000E+00  0.00000000E+00
  0.00000000E+00  0.00000000E+00  0.00000000E+00
  0.00000000E+00  0.00000000E+00  0.00000000E+00
  0.00000000E+00  0.00000000E+00  0.00000000E+00
  0.00000000E+00  0.00000000E+00  0.00000000E+00
  0.00000000E+00  0.00000000E+00  0.00000000E+00
  0.00000000E+00  0.00000000E+00  0.00000000E+00
  0.00000000E+00  0.00000000E+00  0.00000000E+00
  0.00000000E+00  0.00000000E+00  0.00000000E+00
  0.00000000E+00  0.00000000E+00  0.00000000E+00
  0.00000000E+00  0.00000000E+00  0.00000000E+00
  0.00000000E+00  0.00000000E+00  0.00000000E+00
