step                                    
   1.00000000000000     
     8.4506998061999994    0.0000000000000000    0.0000000000000000
    -4.2253499030999997    7.3185207118999998    0.0000000000000000
     0.0000000000000000    0.0000000000000000   24.2000007629000002
   Ir   Pd   Pt   Rh   Ru   H 
     9    11     9     9    10     1
Direct
  0.5591334759113077  0.1114121427887091  0.0400981854105913
  0.5482241001670054  0.1172918218493635  0.3091141469895843
  0.7762422288304379  0.2324193361761011  0.2182243493573275
  0.0322409635614911  0.3537496450963295  0.3981429434303997
  0.3274754492463113  0.3326094678058166  0.1269517067523022
  0.8753672424653429  0.4420254511078842  0.3086110588427051
 -0.0001726603616782  0.6614914653686392  0.1262836724594875
  0.3325966095389778  0.6588864037481119  0.3930201802488217
  0.8909978922476411  0.7810032394129528  0.3073821379276148
  0.0028543477581582  0.0115195880580883  0.4000281386895806
  0.2280621392102141  0.1177726503173651  0.0325720127741998
  0.3284031646635514  0.0017817807816971  0.4028117833023012
  0.6414011971551001 -0.0108440788722314  0.3978328296781685
  0.2291355203490277  0.4475794536962913  0.3039651154270834
  0.8920719984485574  0.4451810892908734  0.0334740372268541
  0.1102088578261047  0.8879442062089241  0.2169077327392549
  0.4523922250211068  0.8921246410815985  0.2179910961438083
  0.7779512569184913  0.8924324539715794  0.2172958265560298
  0.7785037084215770  0.9281594370925562  0.4861666642052578
  0.7954389503228345  0.5532701062714891  0.4861685055791974
  0.0053449793732535  0.0077918869492939  0.1268253843592476
  0.8890734185340931  0.1147341991928996  0.3076077584545111
  0.1037204754134656  0.5499995624933880  0.2170625965398149
  0.0065517199671112  0.6649915600677755  0.3983055576341306
  0.3350394963867690  0.6700318210795482  0.1289122796629325
  0.5576378673030122  0.7841702586208710  0.0365182336442335
  0.6702647618994461  0.6664636275434164  0.1284047297556725
  0.6612075786034627  0.6666459550678119  0.3998504840021161
  0.8904241308103373  0.7757886117873183  0.0366912072858093
  0.3396783665124941  0.0070940937312269  0.1269381049772811
  0.4458403162150374  0.2356148465412682  0.2181205853908957
  0.8855016361390335  0.1205242136116437  0.0385040525806054
  0.3395450797401869  0.3469885426461898  0.3970919013477607
  0.5469612745252359  0.4380084682675174  0.0385278165135061
  0.5621470761267747  0.4515116336598294  0.3069450842181534
  0.6710291347898687  0.3321283958492577  0.1284013064704509
  0.2295293654933315  0.7773116951746217  0.0387611588684727
  0.2270076062063222  0.7924741665059791  0.3096269859868389
  0.2192851622362300  0.1024353556338440  0.3066151773803041
  0.1278669785734160  0.2364499229262284  0.2168493224436325
  0.6801855921659434  0.0244508837185917  0.1260336841046354
  0.9984358684415346  0.3253278025400060  0.1270769174488392
  0.2288682674024719  0.4490120159370518  0.0420286593322248
  0.4515712313423049  0.5480161699947196  0.2157503105309906
  0.6504602973332037  0.3382153560360731  0.3994220384870417
  0.7689144913364278  0.5475847069024294  0.2181158586191381
  0.5616848998238487  0.7761939164440365  0.3072400287558191
  0.8140538122802766  0.2546289671610440  0.4662511610412142
  0.4246004403235461  0.2265605416639756  0.4380794994231499
 
  0.00000000E+00  0.00000000E+00  0.00000000E+00
  0.00000000E+00  0.00000000E+00  0.00000000E+00
  0.00000000E+00  0.00000000E+00  0.00000000E+00
  0.00000000E+00  0.00000000E+00  0.00000000E+00
  0.00000000E+00  0.00000000E+00  0.00000000E+00
  0.00000000E+00  0.00000000E+00  0.00000000E+00
  0.00000000E+00  0.00000000E+00  0.00000000E+00
  0.00000000E+00  0.00000000E+00  0.00000000E+00
  0.00000000E+00  0.00000000E+00  0.00000000E+00
  0.00000000E+00  0.00000000E+00  0.00000000E+00
  0.00000000E+00  0.00000000E+00  0.00000000E+00
  0.00000000E+00  0.00000000E+00  0.00000000E+00
  0.00000000E+00  0.00000000E+00  0.00000000E+00
  0.00000000E+00  0.00000000E+00  0.00000000E+00
  0.00000000E+00  0.00000000E+00  0.00000000E+00
  0.00000000E+00  0.00000000E+00  0.00000000E+00
  0.00000000E+00  0.00000000E+00  0.00000000E+00
  0.00000000E+00  0.00000000E+00  0.00000000E+00
  0.00000000E+00  0.00000000E+00  0.00000000E+00
  0.00000000E+00  0.00000000E+00  0.00000000E+00
  0.00000000E+00  0.00000000E+00  0.00000000E+00
  0.00000000E+00  0.00000000E+00  0.00000000E+00
  0.00000000E+00  0.00000000E+00  0.00000000E+00
  0.00000000E+00  0.00000000E+00  0.00000000E+00
  0.00000000E+00  0.00000000E+00  0.00000000E+00
  0.00000000E+00  0.00000000E+00  0.00000000E+00
  0.00000000E+00  0.00000000E+00  0.00000000E+00
  0.00000000E+00  0.00000000E+00  0.00000000E+00
  0.00000000E+00  0.00000000E+00  0.00000000E+00
  0.00000000E+00  0.00000000E+00  0.00000000E+00
  0.00000000E+00  0.00000000E+00  0.00000000E+00
  0.00000000E+00  0.00000000E+00  0.00000000E+00
  0.00000000E+00  0.00000000E+00  0.00000000E+00
  0.00000000E+00  0.00000000E+00  0.00000000E+00
  0.00000000E+00  0.00000000E+00  0.00000000E+00
  0.00000000E+00  0.00000000E+00  0.00000000E+00
  0.00000000E+00  0.00000000E+00  0.00000000E+00
  0.00000000E+00  0.00000000E+00  0.00000000E+00
  0.00000000E+00  0.00000000E+00  0.00000000E+00
  0.00000000E+00  0.00000000E+00  0.00000000E+00
  0.00000000E+00  0.00000000E+00  0.00000000E+00
  0.00000000E+00  0.00000000E+00  0.00000000E+00
  0.00000000E+00  0.00000000E+00  0.00000000E+00
  0.00000000E+00  0.00000000E+00  0.00000000E+00
  0.00000000E+00  0.00000000E+00  0.00000000E+00
  0.00000000E+00  0.00000000E+00  0.00000000E+00
  0.00000000E+00  0.00000000E+00  0.00000000E+00
  0.00000000E+00  0.00000000E+00  0.00000000E+00
  0.00000000E+00  0.00000000E+00  0.00000000E+00
