step                                    
   1.00000000000000     
     8.4506998061999994    0.0000000000000000    0.0000000000000000
    -4.2253499030999997    7.3185207118999998    0.0000000000000000
     0.0000000000000000    0.0000000000000000   24.2000007629000002
   Ir   Pd   Pt   Rh   Ru   H 
     9    11     9     9    10     1
Direct
  0.5568228724718863  0.1085325977931668  0.0400834703648808
  0.5463452409488689  0.1134624930962023  0.3091599430934669
  0.7741620954357862  0.2290617945332860  0.2181996622891476
  0.0305503195345748  0.3494368597693116  0.3981726292064543
  0.3252819387455710  0.3295754312265897  0.1269293255354086
  0.8734954401151872  0.4383297730854059  0.3085455814458236
  0.9976988603287891  0.6585058578963928  0.1262870319966960
  0.3310073344866842  0.6545854227845682  0.3930508201400454
  0.8893268026313584  0.7772558580430994  0.3074112824573356
  0.0016168060309033  0.0072240983300302  0.3999238214056694
  0.2255853460489589  0.1149448239609081  0.0325289383506931
  0.3270015094692442 -0.0028260459342559  0.4028902310283913
  0.6399535436674537 -0.0153381950539846  0.3978272411460717
  0.2270840866326468  0.4438019297651333  0.3039735671526039
  0.8896781130059035  0.4424134802569651  0.0335086440306355
  0.1083301188168259  0.8847882255603389  0.2168990435040579
  0.4504813587473807  0.8887152150813985  0.2180007561232777
  0.7759650516995195  0.8892101433929941  0.2173032813134463
  0.7772201688966089  0.9225518491430191  0.4860497085046581
  0.7942762709202689  0.5476545707323374  0.4862393594551812
  0.0030895076710047  0.0046722712118347  0.1268184660030743
  0.8872523528201081  0.1109708521772388  0.3075938325830253
  0.1016351438044866  0.5467544087993617  0.2170947313765942
  0.0050701894981223  0.6605394590424745  0.3983408676300310
  0.3327486712896970  0.6669289003574103  0.1289326131969373
  0.5552383784892393  0.7813323694284410  0.0365289195358011
  0.6681099952449082  0.6634989712191101  0.1284336847215935
  0.6598897029468421  0.6621055979093622  0.3998543469669293
  0.8881402455697489  0.7729483191898229  0.0367033466289086
  0.3374251996815482  0.0040544053201738  0.1268883031023446
  0.4437225778397351  0.2321695877359351  0.2180735433648249
  0.8830153526992138  0.1176419064746570  0.0384981155023569
  0.3379453133705380  0.3427128694916322  0.3970323118713896
  0.5446671144779571  0.4353410995778710  0.0385314756008333
  0.5601893907563062  0.4476370409016042  0.3069347502283030
  0.6689855271001129  0.3292614726808344  0.1283959200719013
  0.2272375594845352  0.7746281252338795  0.0387881909561643
  0.2250401726661005  0.7884327161319696  0.3096000275520017
  0.2176237697154317  0.0987793829360613  0.3066831086154813
  0.1258779453220677  0.2331104778865183  0.2168275002322934
  0.6778076001439204  0.0214443245881187  0.1260309877211573
  0.9962324190238300  0.3222200776487226  0.1270911145039879
  0.2264047019736193  0.4461543721396169  0.0420437406233006
  0.4494632651092365  0.5446710032148907  0.2157723498797229
  0.6488726182703421  0.3334256663044020  0.3994052790505149
  0.7669399560827718  0.5443429633882951  0.2181144780468686
  0.5600854097585238  0.7721852772642075  0.3072641716721626
  0.8126066598609535  0.2492103042608902  0.4663708720617367
  0.4221099416946761  0.2219090560217533  0.4379686211558074
 
  0.00000000E+00  0.00000000E+00  0.00000000E+00
  0.00000000E+00  0.00000000E+00  0.00000000E+00
  0.00000000E+00  0.00000000E+00  0.00000000E+00
  0.00000000E+00  0.00000000E+00  0.00000000E+00
  0.00000000E+00  0.00000000E+00  0.00000000E+00
  0.00000000E+00  0.00000000E+00  0.00000000E+00
  0.00000000E+00  0.00000000E+00  0.00000000E+00
  0.00000000E+00  0.00000000E+00  0.00000000E+00
  0.00000000E+00  0.00000000E+00  0.00000000E+00
  0.00000000E+00  0.00000000E+00  0.00000000E+00
  0.00000000E+00  0.00000000E+00  0.00000000E+00
  0.00000000E+00  0.00000000E+00  0.00000000E+00
  0.00000000E+00  0.00000000E+00  0.00000000E+00
  0.00000000E+00  0.00000000E+00  0.00000000E+00
  0.00000000E+00  0.00000000E+00  0.00000000E+00
  0.00000000E+00  0.00000000E+00  0.00000000E+00
  0.00000000E+00  0.00000000E+00  0.00000000E+00
  0.00000000E+00  0.00000000E+00  0.00000000E+00
  0.00000000E+00  0.00000000E+00  0.00000000E+00
  0.00000000E+00  0.00000000E+00  0.00000000E+00
  0.00000000E+00  0.00000000E+00  0.00000000E+00
  0.00000000E+00  0.00000000E+00  0.00000000E+00
  0.00000000E+00  0.00000000E+00  0.00000000E+00
  0.00000000E+00  0.00000000E+00  0.00000000E+00
  0.00000000E+00  0.00000000E+00  0.00000000E+00
  0.00000000E+00  0.00000000E+00  0.00000000E+00
  0.00000000E+00  0.00000000E+00  0.00000000E+00
  0.00000000E+00  0.00000000E+00  0.00000000E+00
  0.00000000E+00  0.00000000E+00  0.00000000E+00
  0.00000000E+00  0.00000000E+00  0.00000000E+00
  0.00000000E+00  0.00000000E+00  0.00000000E+00
  0.00000000E+00  0.00000000E+00  0.00000000E+00
  0.00000000E+00  0.00000000E+00  0.00000000E+00
  0.00000000E+00  0.00000000E+00  0.00000000E+00
  0.00000000E+00  0.00000000E+00  0.00000000E+00
  0.00000000E+00  0.00000000E+00  0.00000000E+00
  0.00000000E+00  0.00000000E+00  0.00000000E+00
  0.00000000E+00  0.00000000E+00  0.00000000E+00
  0.00000000E+00  0.00000000E+00  0.00000000E+00
  0.00000000E+00  0.00000000E+00  0.00000000E+00
  0.00000000E+00  0.00000000E+00  0.00000000E+00
  0.00000000E+00  0.00000000E+00  0.00000000E+00
  0.00000000E+00  0.00000000E+00  0.00000000E+00
  0.00000000E+00  0.00000000E+00  0.00000000E+00
  0.00000000E+00  0.00000000E+00  0.00000000E+00
  0.00000000E+00  0.00000000E+00  0.00000000E+00
  0.00000000E+00  0.00000000E+00  0.00000000E+00
  0.00000000E+00  0.00000000E+00  0.00000000E+00
  0.00000000E+00  0.00000000E+00  0.00000000E+00
