step                                    
   1.00000000000000     
     8.4506998061999994    0.0000000000000000    0.0000000000000000
    -4.2253499030999997    7.3185207118999998    0.0000000000000000
     0.0000000000000000    0.0000000000000000   24.2000007629000002
   Ir   Pd   Pt   Rh   Ru   H 
     9    10     9    10    10     1
Direct
  0.9951364642843040  0.0042822881147697  0.1267875542578599
  0.1110746742937254  0.2112563226860176  0.2159035686776308
  0.5638201562424218  0.1203516445241957  0.0402048435370457
  0.2415203360766126  0.4532140320629842  0.0408562184982993
  0.5489328520302301  0.4401189805798395  0.0397968025911118
  0.3334884111355814  0.6715779019131664  0.1251606273675413
  0.3254162150830519  0.6747594588635663  0.3973130074841001
  0.5539238909105207  0.7772682629954478  0.0394713306141901
  0.6654957300140780  0.6680503439008556  0.1280057312543591
  0.2195663165097753  0.1155001278588258  0.0349572569187644
  0.2193191929870955  0.1084955735694151  0.3074906333190213
  0.7737168769568289  0.2232487010328158  0.2168902576171066
  0.0130421349712046  0.3294321042958042  0.4042548685331483
  0.1068522301345721  0.5563024438104355  0.2169624784851465
  0.3350074098588182  0.3297344404399130  0.4027976448123280
  0.8823456833919252  0.4393907832179464  0.0347830029956257
  0.8844673394434929  0.4445929519532190  0.3128870950084082
  0.2261264051633870  0.7785427756561383  0.0347121502146197
  0.8049661954429661  0.9141730806008049  0.4836090523698934
  0.3237705530639595 -0.0030813444550867  0.4011907334558010
  0.8859282319195171  0.1057209579283027  0.3089835765468884
  0.2171786122825725  0.4433440903324134  0.3082926764819365
  0.5583409468503316  0.4424804245666808  0.3075890117798810
  0.4417502763869304  0.5501181776834156  0.2145809894830602
  0.9950799844295906  0.6631803837890621  0.1273537658602428
  0.5532651228679594  0.7819490981219838  0.3057934884890670
  0.4479685925888915  0.8952729576998261  0.2154031365041562
  0.6511889142136827  0.6663286835344382  0.3992229752399278
  0.3384389653726704  0.0078943151336889  0.1289650553455077
  0.5532489125279176  0.1117166800535512  0.3088441607164009
  0.6484138250140394 -0.0059908019721377  0.4012423102982967
  0.8720236926911994  0.1011021167671638  0.0372826935473427
  0.0006074723493300  0.3266547813673890  0.1261505898864050
  0.2166411958910913  0.7762954983105345  0.3073776683344950
  0.1040979027329989  0.8916247004347415  0.2158892644480051
  0.8684209237906475  0.7766699342316450  0.0386086416178304
  0.8926621989751506  0.7770746264471611  0.3077393428236603
  0.8123888944510129  0.5545675301316749  0.4722213052168689
  0.9942859331058497  0.9799422221390207  0.3965436952279160
  0.4520867550773757  0.2337845337486482  0.2148872592926104
  0.6679842924916642  0.0002467030360428  0.1246295117171168
  0.3282004125936738  0.3222030554129203  0.1278023350563323
  0.6515926372688746  0.3294563225369512  0.1275754758336691
  0.6342334606948360  0.3037342543155598  0.4003256817401552
  0.7636566181216371  0.5560013310967337  0.2152588681623741
  0.0149759221871731  0.6928713616843226  0.3980167546573526
  0.7899712229278584  0.8886648410576712  0.2150961676603655
  0.7699750441333183  0.2363356148247267  0.4759565273594689
  0.1916337430676372  0.5734843329647908  0.4503722156606635
 
  0.00000000E+00  0.00000000E+00  0.00000000E+00
  0.00000000E+00  0.00000000E+00  0.00000000E+00
  0.00000000E+00  0.00000000E+00  0.00000000E+00
  0.00000000E+00  0.00000000E+00  0.00000000E+00
  0.00000000E+00  0.00000000E+00  0.00000000E+00
  0.00000000E+00  0.00000000E+00  0.00000000E+00
  0.00000000E+00  0.00000000E+00  0.00000000E+00
  0.00000000E+00  0.00000000E+00  0.00000000E+00
  0.00000000E+00  0.00000000E+00  0.00000000E+00
  0.00000000E+00  0.00000000E+00  0.00000000E+00
  0.00000000E+00  0.00000000E+00  0.00000000E+00
  0.00000000E+00  0.00000000E+00  0.00000000E+00
  0.00000000E+00  0.00000000E+00  0.00000000E+00
  0.00000000E+00  0.00000000E+00  0.00000000E+00
  0.00000000E+00  0.00000000E+00  0.00000000E+00
  0.00000000E+00  0.00000000E+00  0.00000000E+00
  0.00000000E+00  0.00000000E+00  0.00000000E+00
  0.00000000E+00  0.00000000E+00  0.00000000E+00
  0.00000000E+00  0.00000000E+00  0.00000000E+00
  0.00000000E+00  0.00000000E+00  0.00000000E+00
  0.00000000E+00  0.00000000E+00  0.00000000E+00
  0.00000000E+00  0.00000000E+00  0.00000000E+00
  0.00000000E+00  0.00000000E+00  0.00000000E+00
  0.00000000E+00  0.00000000E+00  0.00000000E+00
  0.00000000E+00  0.00000000E+00  0.00000000E+00
  0.00000000E+00  0.00000000E+00  0.00000000E+00
  0.00000000E+00  0.00000000E+00  0.00000000E+00
  0.00000000E+00  0.00000000E+00  0.00000000E+00
  0.00000000E+00  0.00000000E+00  0.00000000E+00
  0.00000000E+00  0.00000000E+00  0.00000000E+00
  0.00000000E+00  0.00000000E+00  0.00000000E+00
  0.00000000E+00  0.00000000E+00  0.00000000E+00
  0.00000000E+00  0.00000000E+00  0.00000000E+00
  0.00000000E+00  0.00000000E+00  0.00000000E+00
  0.00000000E+00  0.00000000E+00  0.00000000E+00
  0.00000000E+00  0.00000000E+00  0.00000000E+00
  0.00000000E+00  0.00000000E+00  0.00000000E+00
  0.00000000E+00  0.00000000E+00  0.00000000E+00
  0.00000000E+00  0.00000000E+00  0.00000000E+00
  0.00000000E+00  0.00000000E+00  0.00000000E+00
  0.00000000E+00  0.00000000E+00  0.00000000E+00
  0.00000000E+00  0.00000000E+00  0.00000000E+00
  0.00000000E+00  0.00000000E+00  0.00000000E+00
  0.00000000E+00  0.00000000E+00  0.00000000E+00
  0.00000000E+00  0.00000000E+00  0.00000000E+00
  0.00000000E+00  0.00000000E+00  0.00000000E+00
  0.00000000E+00  0.00000000E+00  0.00000000E+00
  0.00000000E+00  0.00000000E+00  0.00000000E+00
  0.00000000E+00  0.00000000E+00  0.00000000E+00
