step                                    
   1.00000000000000     
     8.4506998061999994    0.0000000000000000    0.0000000000000000
    -4.2253499030999997    7.3185207118999998    0.0000000000000000
     0.0000000000000000    0.0000000000000000   24.2000007629000002
   Ir   Pd   Pt   Rh   Ru   H 
     9    10     9    10    10     1
Direct
  0.9927909939936073  0.0057953142365440  0.1259147066370058
  0.1105308352592722  0.2131924945305727  0.2150979442539634
  0.5621840659487038  0.1213822497113262  0.0395217350562124
  0.2412316036812327  0.4550290722585510  0.0403785814855912
  0.5476791350737880  0.4408949503460806  0.0392553817696203
  0.3327746689879310  0.6737717162079931  0.1246532503553157
  0.3226564506203667  0.6783728613038528  0.3948052782019583
  0.5527803669231260  0.7789507409182433  0.0389329593225598
  0.6649338829723550  0.6698304001765381  0.1272311306900349
  0.2189943024266495  0.1170807164569663  0.0343619889977038
  0.2184389834735718  0.1103845539403720  0.3063967963008938
  0.7734835404344772  0.2251648626696929  0.2166054576603669
  0.0164185267371032  0.3405422130421017  0.4029138670150128
  0.1061335221116562  0.5581948223840638  0.2161314280394249
  0.3313032517601522  0.3294634156969777  0.4017509943515571
  0.8808944889871060  0.4407780019729387  0.0340879610535591
  0.8838706988594167  0.4479799284432864  0.3121190671978350
  0.2248892167378685  0.7796938730605325  0.0340919911042003
  0.8095424227283725  0.8937131182322691  0.4849497297803016
  0.3224608101511927 -0.0018659740870969  0.3999939474395170
  0.8863122318301064  0.1078765807036387  0.3087670454250548
  0.2166239693772539  0.4453706010260651  0.3073081221403864
  0.5574031073738105  0.4443424385265804  0.3067162973468537
  0.4413862442699389  0.5522243100112265  0.2137994659699565
  0.9939774768979807  0.6648451998420059  0.1267030225487451
  0.5535491235814884  0.7865581395473625  0.3059253363215215
  0.4485410859920035  0.8980682698203399  0.2148462013705782
  0.6464609780677846  0.6654951842431557  0.3974393187037462
  0.3368690874920802  0.0087929063142068  0.1284018279893572
  0.5539745462309451  0.1152146211051481  0.3091317280862587
  0.6501831528633840  0.9960630776301462  0.4032783573109650
  0.8707544981806697  0.1027402891671428  0.0364881691331505
 -0.0005816610408086  0.3279877064770911  0.1254546174413347
  0.2163240449663324  0.7795862557844683  0.3059742237675263
  0.1028998451737227  0.8930965578571816  0.2152356422074774
  0.8676061527789595  0.7779831744608404  0.0379419172602281
  0.8919047355649893  0.7801467528046606  0.3069292355753334
  0.8161279376180933  0.5724360597558940  0.4717081235170560
  0.9923139983600040  0.9801291042748208  0.3954267449532515
  0.4510415280564541  0.2350166318436617  0.2143494713738696
  0.6680252815288682  0.0024571782693257  0.1241760973080239
  0.3270930319456363  0.3228809553215210  0.1272647691896803
  0.6506919558007467  0.3301534009415070  0.1269179693829570
  0.6345260527845727  0.3079657628452652  0.4003718880130949
  0.7626272535546408  0.5570602712858891  0.2145759529773595
  0.0185899049855078  0.6913717208230227  0.3974859015417239
  0.7861856832184031  0.8882224324105070  0.2150796367183140
  0.7833819761976190  0.2630132530475523  0.4752649476623547
  0.6725547944808475  0.0087114423579613  0.4798837750512047
 
  0.00000000E+00  0.00000000E+00  0.00000000E+00
  0.00000000E+00  0.00000000E+00  0.00000000E+00
  0.00000000E+00  0.00000000E+00  0.00000000E+00
  0.00000000E+00  0.00000000E+00  0.00000000E+00
  0.00000000E+00  0.00000000E+00  0.00000000E+00
  0.00000000E+00  0.00000000E+00  0.00000000E+00
  0.00000000E+00  0.00000000E+00  0.00000000E+00
  0.00000000E+00  0.00000000E+00  0.00000000E+00
  0.00000000E+00  0.00000000E+00  0.00000000E+00
  0.00000000E+00  0.00000000E+00  0.00000000E+00
  0.00000000E+00  0.00000000E+00  0.00000000E+00
  0.00000000E+00  0.00000000E+00  0.00000000E+00
  0.00000000E+00  0.00000000E+00  0.00000000E+00
  0.00000000E+00  0.00000000E+00  0.00000000E+00
  0.00000000E+00  0.00000000E+00  0.00000000E+00
  0.00000000E+00  0.00000000E+00  0.00000000E+00
  0.00000000E+00  0.00000000E+00  0.00000000E+00
  0.00000000E+00  0.00000000E+00  0.00000000E+00
  0.00000000E+00  0.00000000E+00  0.00000000E+00
  0.00000000E+00  0.00000000E+00  0.00000000E+00
  0.00000000E+00  0.00000000E+00  0.00000000E+00
  0.00000000E+00  0.00000000E+00  0.00000000E+00
  0.00000000E+00  0.00000000E+00  0.00000000E+00
  0.00000000E+00  0.00000000E+00  0.00000000E+00
  0.00000000E+00  0.00000000E+00  0.00000000E+00
  0.00000000E+00  0.00000000E+00  0.00000000E+00
  0.00000000E+00  0.00000000E+00  0.00000000E+00
  0.00000000E+00  0.00000000E+00  0.00000000E+00
  0.00000000E+00  0.00000000E+00  0.00000000E+00
  0.00000000E+00  0.00000000E+00  0.00000000E+00
  0.00000000E+00  0.00000000E+00  0.00000000E+00
  0.00000000E+00  0.00000000E+00  0.00000000E+00
  0.00000000E+00  0.00000000E+00  0.00000000E+00
  0.00000000E+00  0.00000000E+00  0.00000000E+00
  0.00000000E+00  0.00000000E+00  0.00000000E+00
  0.00000000E+00  0.00000000E+00  0.00000000E+00
  0.00000000E+00  0.00000000E+00  0.00000000E+00
  0.00000000E+00  0.00000000E+00  0.00000000E+00
  0.00000000E+00  0.00000000E+00  0.00000000E+00
  0.00000000E+00  0.00000000E+00  0.00000000E+00
  0.00000000E+00  0.00000000E+00  0.00000000E+00
  0.00000000E+00  0.00000000E+00  0.00000000E+00
  0.00000000E+00  0.00000000E+00  0.00000000E+00
  0.00000000E+00  0.00000000E+00  0.00000000E+00
  0.00000000E+00  0.00000000E+00  0.00000000E+00
  0.00000000E+00  0.00000000E+00  0.00000000E+00
  0.00000000E+00  0.00000000E+00  0.00000000E+00
  0.00000000E+00  0.00000000E+00  0.00000000E+00
  0.00000000E+00  0.00000000E+00  0.00000000E+00
