Amorphous+H                             
   1.00000000000000     
     8.4506998061999994    0.0000000000000000    0.0000000000000000
    -4.2253499030999997    7.3185207118999998    0.0000000000000000
     0.0000000000000000    0.0000000000000000   24.2000007629000002
   Ir   Pd   Pt   Rh   Ru   H 
     9     9     9     9     9     1
Direct
  0.6989667685563132  0.6474972269943597  0.0340884760944149
  0.9072185052126093  0.1186911222694163  0.3281025679129182
  0.4779487344508309  0.5744650508990096  0.4095138460952416
  0.5902125462094925  0.7913962365750180  0.3259357985006330
  0.0248897065520372  0.3526460579684352  0.2381472319795163
  0.2124376592649438  0.1677455717572051  0.2692168125717475
  0.4107015998702731  0.6036820428104070  0.0938015225922444
  0.3045808665583081  0.7428468199701826  0.3875183568522544
  0.0547393289391236  0.6345057012962599  0.3061147667243577
  0.8939835933554735  0.4688997967735472  0.0470700362928925
  0.7077896473925116  0.2971730631096774  0.2971086783522707
  0.8799947324769128  0.8168381771682530  0.2714417292635421
  0.7538966341180784  0.9425117666502095  0.0903920333838522
  0.7922209105659620  0.2391087382908613  0.1460472077983092
  0.3482893787828719  0.6732226591200592  0.2392576796151859
  0.6832870654650650  0.0100379629277959  0.2373074490875486
  0.5651503784311054  0.1233456829328221  0.0480232273039198
  0.1667743736372842  0.8609410954240521  0.2089912400070771
  0.8335726342886874  0.5242991315844934  0.2088761679402767
  0.6470728469995408  0.7086534521657585  0.1795971701651055
  0.2244886698993803  0.4344549212484487  0.3320145802118427
  0.8873707675272788  0.1715014051188652  0.0016045213508206
  0.2279146784670294  0.7931026724745731  0.0540028758971340
  0.4565160241220504  0.9046309539481677  0.1471302000990255
  0.9893188021431626  0.0528186043188331  0.1788652489442553
  0.3867999503882829  0.3222578401872430  0.0304716485361943
  0.0474573756957562  0.9757479815393699  0.0306185103711011
  0.6081327045509617  0.4202776253843745  0.1202926173039894
  0.0979008788902505  0.2806290823971503  0.0904581277085858
  0.4228522490836469  0.2674729229568047  0.3595940447536835
  0.5280731929284689  0.4863986078313540  0.2688249625298901
  0.1198315130724229  0.5658260240346105  0.1458352437675437
  0.2795097573572278  0.0879396046205813  0.1183884033376722
  0.3719289482035747  0.9721294544102157  0.3031194301331889
  0.9197612463620292  0.3930793114346565  0.3859845508090671
  0.6146749646960069  0.0641186019445865  0.3855546583377588
  0.3096857377800236  0.3687583273726620  0.1778280221918246
  0.2182031103645580  0.5052341785862352  0.0060687754830478
  0.8025498820124614  0.8829588173055058  0.4091026745774584
  0.7403197756914860  0.5784628543326765  0.3612013223521676
  0.0164677292113452  0.7165974084540498  0.4158034552260032
  0.9344060533476131  0.7416205891572254  0.1157982266451428
  0.5188969938373141  0.7884348855349279  0.0030772278315502
  0.4815132596923461  0.1945174276080343  0.2074173771309764
  0.0980130889730834  0.9791504327422662  0.3600216942291196
  0.7055746265748237  0.0167220833687483  0.4424595267076433
 
  0.00000000E+00  0.00000000E+00  0.00000000E+00
  0.00000000E+00  0.00000000E+00  0.00000000E+00
  0.00000000E+00  0.00000000E+00  0.00000000E+00
  0.00000000E+00  0.00000000E+00  0.00000000E+00
  0.00000000E+00  0.00000000E+00  0.00000000E+00
  0.00000000E+00  0.00000000E+00  0.00000000E+00
  0.00000000E+00  0.00000000E+00  0.00000000E+00
  0.00000000E+00  0.00000000E+00  0.00000000E+00
  0.00000000E+00  0.00000000E+00  0.00000000E+00
  0.00000000E+00  0.00000000E+00  0.00000000E+00
  0.00000000E+00  0.00000000E+00  0.00000000E+00
  0.00000000E+00  0.00000000E+00  0.00000000E+00
  0.00000000E+00  0.00000000E+00  0.00000000E+00
  0.00000000E+00  0.00000000E+00  0.00000000E+00
  0.00000000E+00  0.00000000E+00  0.00000000E+00
  0.00000000E+00  0.00000000E+00  0.00000000E+00
  0.00000000E+00  0.00000000E+00  0.00000000E+00
  0.00000000E+00  0.00000000E+00  0.00000000E+00
  0.00000000E+00  0.00000000E+00  0.00000000E+00
  0.00000000E+00  0.00000000E+00  0.00000000E+00
  0.00000000E+00  0.00000000E+00  0.00000000E+00
  0.00000000E+00  0.00000000E+00  0.00000000E+00
  0.00000000E+00  0.00000000E+00  0.00000000E+00
  0.00000000E+00  0.00000000E+00  0.00000000E+00
  0.00000000E+00  0.00000000E+00  0.00000000E+00
  0.00000000E+00  0.00000000E+00  0.00000000E+00
  0.00000000E+00  0.00000000E+00  0.00000000E+00
  0.00000000E+00  0.00000000E+00  0.00000000E+00
  0.00000000E+00  0.00000000E+00  0.00000000E+00
  0.00000000E+00  0.00000000E+00  0.00000000E+00
  0.00000000E+00  0.00000000E+00  0.00000000E+00
  0.00000000E+00  0.00000000E+00  0.00000000E+00
  0.00000000E+00  0.00000000E+00  0.00000000E+00
  0.00000000E+00  0.00000000E+00  0.00000000E+00
  0.00000000E+00  0.00000000E+00  0.00000000E+00
  0.00000000E+00  0.00000000E+00  0.00000000E+00
  0.00000000E+00  0.00000000E+00  0.00000000E+00
  0.00000000E+00  0.00000000E+00  0.00000000E+00
  0.00000000E+00  0.00000000E+00  0.00000000E+00
  0.00000000E+00  0.00000000E+00  0.00000000E+00
  0.00000000E+00  0.00000000E+00  0.00000000E+00
  0.00000000E+00  0.00000000E+00  0.00000000E+00
  0.00000000E+00  0.00000000E+00  0.00000000E+00
  0.00000000E+00  0.00000000E+00  0.00000000E+00
  0.00000000E+00  0.00000000E+00  0.00000000E+00
  0.00000000E+00  0.00000000E+00  0.00000000E+00
