step                                    
   1.00000000000000     
     8.4506998061999994    0.0000000000000000    0.0000000000000000
    -4.2253499030999997    7.3185207118999998    0.0000000000000000
     0.0000000000000000    0.0000000000000000   24.2000007629000002
   Ir   Pd   Pt   Rh   Ru   H 
    10    10     9     9    10     1
Direct
  0.5573318614768931  0.1088731270241191  0.0402421475601952
  0.5500981703712348  0.1099112533551157  0.3088071251191293
  0.7751632601448455  0.2299125847662757  0.2182654504750467
  0.0265293018842216  0.3520327463147331  0.3966547452507421
  0.3263322753729985  0.3304579724854922  0.1270111966638251
  0.8713750882964396  0.4382594868235919  0.3099129418488595
  0.9977396572680900  0.6583884963502191  0.1262253656858912
  0.3323699683203843  0.6579804843032878  0.3925583047881078
  0.8895662779746217  0.7755056405565949  0.3078975966995132
  0.8115230803736915  0.2474877789616804  0.4706732331750391
  0.9995254441010246  0.0045479506675591  0.4004771113374915
  0.2271716028301719  0.1151017595282616  0.0324329069453078
  0.3298480438339211  0.0009091345799117  0.4022642485238058
  0.6438874056844657  0.9852991844941115  0.3984133455907166
  0.2267742650022815  0.4449143017293244  0.3039218409722055
  0.8902723782435069  0.4427917501154411  0.0334345087556285
  0.1078039410089444  0.8843047062383448  0.2168113042510326
  0.4508877926189724  0.8887440697791962  0.2169942101879943
  0.7767545327803258  0.8888887342692740  0.2173712576587381
  0.7784132738804714  0.9235356757794413  0.4879743123936993
  0.0042422066009248  0.0058622073880152  0.1266943524575960
  0.8883191965589677  0.1100471218288152  0.3073543363808869
  0.1013897491548221  0.5464765684072498  0.2169770302046275
  0.0175937377840084  0.6691815019854408  0.4001524104815372
  0.3327795712097147  0.6667636007194924  0.1286551547362899
  0.5562321212659427  0.7820888266443182  0.0367192759870782
  0.6689504158019202  0.6640373861587422  0.1284678079830107
  0.6553021705115974  0.6608836843909860  0.4026654956695720
  0.8891632477310055  0.7737573868131702  0.0366066724693001
  0.3377413884215639  0.0050948383247429  0.1270380568939452
  0.4438620541192942  0.2322376739698159  0.2181833477503647
  0.8829671085179387  0.1177377177635193  0.0384258778525197
  0.3290212364980279  0.3399601117242060  0.3959682303105402
  0.5453381286760837  0.4359383549414551  0.0386748298226655
  0.5608432031398771  0.4463535471718582  0.3074410153935150
  0.6700757139317232  0.3301058165822860  0.1285146373533586
  0.2279456991830311  0.7762441505805862  0.0387522473638075
  0.2256859372472142  0.7893216628069795  0.3086976531437075
  0.2174955704921030  0.0983824928485314  0.3064139230260559
  0.1266183075440728  0.2338775320767260  0.2168174875080456
  0.6794205048692853  0.0220474730908657  0.1262309777925082
  0.9972228502244779  0.3234479613649255  0.1268756296048310
  0.2271669725060255  0.4463940578839876  0.0420482891033546
  0.4499612823424730  0.5450389120260741  0.2161746977923329
  0.6334333602724215  0.3339719059358219  0.3989829986208893
  0.7662176076320245  0.5450968008592275  0.2184722894635502
  0.5594014545858856  0.7760313515552211  0.3070491948817051
  0.8007452579401396  0.5248225810542467  0.4773367411350038
  0.4108062847699399  0.2219193969807229  0.4388661939344313
 
  0.00000000E+00  0.00000000E+00  0.00000000E+00
  0.00000000E+00  0.00000000E+00  0.00000000E+00
  0.00000000E+00  0.00000000E+00  0.00000000E+00
  0.00000000E+00  0.00000000E+00  0.00000000E+00
  0.00000000E+00  0.00000000E+00  0.00000000E+00
  0.00000000E+00  0.00000000E+00  0.00000000E+00
  0.00000000E+00  0.00000000E+00  0.00000000E+00
  0.00000000E+00  0.00000000E+00  0.00000000E+00
  0.00000000E+00  0.00000000E+00  0.00000000E+00
  0.00000000E+00  0.00000000E+00  0.00000000E+00
  0.00000000E+00  0.00000000E+00  0.00000000E+00
  0.00000000E+00  0.00000000E+00  0.00000000E+00
  0.00000000E+00  0.00000000E+00  0.00000000E+00
  0.00000000E+00  0.00000000E+00  0.00000000E+00
  0.00000000E+00  0.00000000E+00  0.00000000E+00
  0.00000000E+00  0.00000000E+00  0.00000000E+00
  0.00000000E+00  0.00000000E+00  0.00000000E+00
  0.00000000E+00  0.00000000E+00  0.00000000E+00
  0.00000000E+00  0.00000000E+00  0.00000000E+00
  0.00000000E+00  0.00000000E+00  0.00000000E+00
  0.00000000E+00  0.00000000E+00  0.00000000E+00
  0.00000000E+00  0.00000000E+00  0.00000000E+00
  0.00000000E+00  0.00000000E+00  0.00000000E+00
  0.00000000E+00  0.00000000E+00  0.00000000E+00
  0.00000000E+00  0.00000000E+00  0.00000000E+00
  0.00000000E+00  0.00000000E+00  0.00000000E+00
  0.00000000E+00  0.00000000E+00  0.00000000E+00
  0.00000000E+00  0.00000000E+00  0.00000000E+00
  0.00000000E+00  0.00000000E+00  0.00000000E+00
  0.00000000E+00  0.00000000E+00  0.00000000E+00
  0.00000000E+00  0.00000000E+00  0.00000000E+00
  0.00000000E+00  0.00000000E+00  0.00000000E+00
  0.00000000E+00  0.00000000E+00  0.00000000E+00
  0.00000000E+00  0.00000000E+00  0.00000000E+00
  0.00000000E+00  0.00000000E+00  0.00000000E+00
  0.00000000E+00  0.00000000E+00  0.00000000E+00
  0.00000000E+00  0.00000000E+00  0.00000000E+00
  0.00000000E+00  0.00000000E+00  0.00000000E+00
  0.00000000E+00  0.00000000E+00  0.00000000E+00
  0.00000000E+00  0.00000000E+00  0.00000000E+00
  0.00000000E+00  0.00000000E+00  0.00000000E+00
  0.00000000E+00  0.00000000E+00  0.00000000E+00
  0.00000000E+00  0.00000000E+00  0.00000000E+00
  0.00000000E+00  0.00000000E+00  0.00000000E+00
  0.00000000E+00  0.00000000E+00  0.00000000E+00
  0.00000000E+00  0.00000000E+00  0.00000000E+00
  0.00000000E+00  0.00000000E+00  0.00000000E+00
  0.00000000E+00  0.00000000E+00  0.00000000E+00
  0.00000000E+00  0.00000000E+00  0.00000000E+00
