Amorphous+H                             
   1.00000000000000     
     8.4506998061999994    0.0000000000000000    0.0000000000000000
    -4.2253499030999997    7.3185207118999998    0.0000000000000000
     0.0000000000000000    0.0000000000000000   24.2000007629000002
   Ir   Pd   Pt   Rh   Ru   H 
     9     9     9     9     9     1
Direct
  0.7019820627032427  0.6504413308632423  0.0328174254314644
  0.9125389473816163  0.1219742674778621  0.3312621378520053
  0.4832092304631738  0.5775359276959504  0.4080896219344546
  0.5850247538510802  0.8034293042424148  0.3273053821899065
  0.0307829377540503  0.3504141123998858  0.2368961615913717
  0.2136714555945187  0.1724512603065156  0.2703130788429978
  0.4135576194306597  0.6056871260113630  0.0931617505109136
  0.2845611643145985  0.7505153566576598  0.3831730006914727
  0.0601126733236571  0.6427475865215363  0.2988324505258056
  0.8972259170767563  0.4719495485505125  0.0456750043103331
  0.7246759670205416  0.3082847675139772  0.2969422176173047
  0.8753197874373539  0.8235137418221359  0.2701091443401965
  0.7570702626659556  0.9449089752353650  0.0891541330919797
  0.7956599486328017  0.2417994576925757  0.1446633418004730
  0.3532429883418398  0.6740313591314557  0.2370712012235707
  0.6918129817392955  0.0156477785476085  0.2364840615153811
  0.5691660273246240  0.1254313096133587  0.0464903793054978
  0.1713279241251053  0.8661868408804984  0.2077995766754437
  0.8369918140872952  0.5276974055865218  0.2072791174052913
  0.6493415330576081  0.7090244204012174  0.1785477149134281
  0.2317730091988604  0.4437099133953363  0.3316452640141087
  0.8945082331060493  0.1766402986466696  0.0006023372244786
  0.2320124535783063  0.7951899875278606  0.0537958353122212
  0.4621375766134013  0.9083005272013147  0.1464234624632626
  0.9934537886525876  0.0520986662728212  0.1776628919843861
  0.3895929291159741  0.3242236646498566  0.0289948767165266
  0.0525647780873565  0.9794062084980312  0.0299678018348489
  0.6113847260525805  0.4224361262974758  0.1185359859096063
  0.1015183930165719  0.2815002368085694  0.0900691451808211
  0.4304306554350745  0.2740089174231524  0.3580330110511910
  0.5349929066444536  0.4896483208054684  0.2693275866412773
  0.1229050091788856  0.5672904856605090  0.1448203515960464
  0.2869809346300899  0.0920584293455140  0.1175618488018752
  0.3927995984913850  0.9845715375438502  0.2980639377661490
  0.9439044341855709  0.4270855127025883  0.3854999271094830
  0.6162172317281249  0.0784652632256132  0.3841331749273607
  0.3125298809591024  0.3685879165780350  0.1771218822411657
  0.2205401501191249  0.5063959129330318  0.0052684936607997
  0.8158564287088070  0.8825508357899536  0.4076492851406450
  0.7565422473566134  0.5887249717548267  0.3624137674186935
 -0.0069650915927050  0.7220285749485496  0.4335986031475591
  0.9369260342206354  0.7425494350143554  0.1144490089138070
  0.5210488079955966  0.7890519362742878  0.0019251480385478
  0.4873890511213394  0.1993861704626758  0.2071689452342289
  0.1075111923930586  0.9331630611812151  0.3574465888968774
 -0.1010713953226096  0.8387652009067649  0.4724938770047313
 
  0.00000000E+00  0.00000000E+00  0.00000000E+00
  0.00000000E+00  0.00000000E+00  0.00000000E+00
  0.00000000E+00  0.00000000E+00  0.00000000E+00
  0.00000000E+00  0.00000000E+00  0.00000000E+00
  0.00000000E+00  0.00000000E+00  0.00000000E+00
  0.00000000E+00  0.00000000E+00  0.00000000E+00
  0.00000000E+00  0.00000000E+00  0.00000000E+00
  0.00000000E+00  0.00000000E+00  0.00000000E+00
  0.00000000E+00  0.00000000E+00  0.00000000E+00
  0.00000000E+00  0.00000000E+00  0.00000000E+00
  0.00000000E+00  0.00000000E+00  0.00000000E+00
  0.00000000E+00  0.00000000E+00  0.00000000E+00
  0.00000000E+00  0.00000000E+00  0.00000000E+00
  0.00000000E+00  0.00000000E+00  0.00000000E+00
  0.00000000E+00  0.00000000E+00  0.00000000E+00
  0.00000000E+00  0.00000000E+00  0.00000000E+00
  0.00000000E+00  0.00000000E+00  0.00000000E+00
  0.00000000E+00  0.00000000E+00  0.00000000E+00
  0.00000000E+00  0.00000000E+00  0.00000000E+00
  0.00000000E+00  0.00000000E+00  0.00000000E+00
  0.00000000E+00  0.00000000E+00  0.00000000E+00
  0.00000000E+00  0.00000000E+00  0.00000000E+00
  0.00000000E+00  0.00000000E+00  0.00000000E+00
  0.00000000E+00  0.00000000E+00  0.00000000E+00
  0.00000000E+00  0.00000000E+00  0.00000000E+00
  0.00000000E+00  0.00000000E+00  0.00000000E+00
  0.00000000E+00  0.00000000E+00  0.00000000E+00
  0.00000000E+00  0.00000000E+00  0.00000000E+00
  0.00000000E+00  0.00000000E+00  0.00000000E+00
  0.00000000E+00  0.00000000E+00  0.00000000E+00
  0.00000000E+00  0.00000000E+00  0.00000000E+00
  0.00000000E+00  0.00000000E+00  0.00000000E+00
  0.00000000E+00  0.00000000E+00  0.00000000E+00
  0.00000000E+00  0.00000000E+00  0.00000000E+00
  0.00000000E+00  0.00000000E+00  0.00000000E+00
  0.00000000E+00  0.00000000E+00  0.00000000E+00
  0.00000000E+00  0.00000000E+00  0.00000000E+00
  0.00000000E+00  0.00000000E+00  0.00000000E+00
  0.00000000E+00  0.00000000E+00  0.00000000E+00
  0.00000000E+00  0.00000000E+00  0.00000000E+00
  0.00000000E+00  0.00000000E+00  0.00000000E+00
  0.00000000E+00  0.00000000E+00  0.00000000E+00
  0.00000000E+00  0.00000000E+00  0.00000000E+00
  0.00000000E+00  0.00000000E+00  0.00000000E+00
  0.00000000E+00  0.00000000E+00  0.00000000E+00
  0.00000000E+00  0.00000000E+00  0.00000000E+00
