step                                    
   1.00000000000000     
     8.4506998061999994    0.0000000000000000    0.0000000000000000
    -4.2253499030999997    7.3185207118999998    0.0000000000000000
     0.0000000000000000    0.0000000000000000   24.2000007629000002
   Ir   Pd   Pt   Rh   Ru   H 
     9    11    10     9     9     1
Direct
  0.5546117538559269  0.1073940328588791  0.0381974731529216
  0.5472202230054466  0.1115182117939882  0.3076433565473450
  0.7736709636745338  0.2308410974246777  0.2156638200050056
  0.0120138975668633  0.3525129570713368  0.3943268631307668
  0.3245295083257319  0.3309329945900779  0.1254359867750253
  0.8753972880044770  0.4433568694370569  0.3052492194787452
  0.9959843572631902  0.6580191953989072  0.1247285959237780
  0.3308899892469543  0.6559047425089344  0.3909695863354112
  0.8867079371902642  0.7775017969009369  0.3053714233954677
  0.0053522689640402  0.0106624068604166  0.3981269780616179
  0.2244498885882989  0.1140950496697103  0.0307303997949144
  0.3378718696738237  0.0128460606182130  0.3999077748388086
  0.6501692424368232  0.9914344176635650  0.3972227873171825
  0.2224185342481793  0.4423603420395157  0.3029512360973226
  0.8878664660599180  0.4425451448618573  0.0320071859837628
  0.1066426109457029  0.8848755483433898  0.2150368059077599
  0.4493045081314858  0.8896275405236533  0.2157896848201653
  0.7738586371841251  0.8883959330000609  0.2153522200579324
  0.7784331262207814  0.8915632048674481  0.4834127668768674
  0.7892944030913051  0.5542106397063632  0.4840237516396497
  0.0022789889627374  0.0052230513371132  0.1249723210557941
  0.8850423582282646  0.1083844338105455  0.3046417136438564
  0.1015171310692950  0.5468372439197015  0.2152695584734318
  0.0088361884326545  0.6708205402446543  0.3968672750491480
  0.3316202139897427  0.6668571175965743  0.1266566064211402
  0.5549815037618785  0.7822652889481222  0.0341534048407006
  0.6650949560267556  0.6639559389813399  0.1266414563229136
  0.6524052141467456  0.6549264888006653  0.3972184287618085
  0.8865267522439791  0.7730313488708943  0.0348463317022872
  0.8111870770469118  0.2342722989351460  0.4802332594630835
  0.3355722774621218  0.0041077438318972  0.1250605966736139
  0.4424904142732742  0.2316340061151863  0.2162404338669849
  0.8817627739162908  0.1177472576623514  0.0366160889113058
  0.3302628748812672  0.3355083333671397  0.3932140761441592
  0.5429240930671467  0.4367633880233044  0.0366423051427637
  0.5594815050872930  0.4415984922337914  0.3067073132481127
  0.6661889538536326  0.3291765715333008  0.1264003407008728
  0.2258136642758260  0.7758323147448352  0.0368027519134755
  0.2257103357098339  0.7896598739693700  0.3076368449761352
  0.2172196838590184  0.0992420451840804  0.3054466098851941
  0.1257763182839640  0.2326784531735734  0.2152474838342391
  0.6770862644253620  0.0220983614902386  0.1243518565416209
  0.9960014139604794  0.3233266730246683  0.1248908584570940
  0.2248053695441758  0.4453888529033846  0.0402539445776829
  0.4475647504786138  0.5447705518799145  0.2153763701105669
  0.6768998769354799  0.3354912362955207  0.3944805845382042
  0.7654409714510858  0.5453836502712512  0.2160556684280685
  0.5554996091064320  0.7719208608598528  0.3052665704219639
  0.8762109018418573  0.4195888588525706  0.5192610387533277
 
  0.00000000E+00  0.00000000E+00  0.00000000E+00
  0.00000000E+00  0.00000000E+00  0.00000000E+00
  0.00000000E+00  0.00000000E+00  0.00000000E+00
  0.00000000E+00  0.00000000E+00  0.00000000E+00
  0.00000000E+00  0.00000000E+00  0.00000000E+00
  0.00000000E+00  0.00000000E+00  0.00000000E+00
  0.00000000E+00  0.00000000E+00  0.00000000E+00
  0.00000000E+00  0.00000000E+00  0.00000000E+00
  0.00000000E+00  0.00000000E+00  0.00000000E+00
  0.00000000E+00  0.00000000E+00  0.00000000E+00
  0.00000000E+00  0.00000000E+00  0.00000000E+00
  0.00000000E+00  0.00000000E+00  0.00000000E+00
  0.00000000E+00  0.00000000E+00  0.00000000E+00
  0.00000000E+00  0.00000000E+00  0.00000000E+00
  0.00000000E+00  0.00000000E+00  0.00000000E+00
  0.00000000E+00  0.00000000E+00  0.00000000E+00
  0.00000000E+00  0.00000000E+00  0.00000000E+00
  0.00000000E+00  0.00000000E+00  0.00000000E+00
  0.00000000E+00  0.00000000E+00  0.00000000E+00
  0.00000000E+00  0.00000000E+00  0.00000000E+00
  0.00000000E+00  0.00000000E+00  0.00000000E+00
  0.00000000E+00  0.00000000E+00  0.00000000E+00
  0.00000000E+00  0.00000000E+00  0.00000000E+00
  0.00000000E+00  0.00000000E+00  0.00000000E+00
  0.00000000E+00  0.00000000E+00  0.00000000E+00
  0.00000000E+00  0.00000000E+00  0.00000000E+00
  0.00000000E+00  0.00000000E+00  0.00000000E+00
  0.00000000E+00  0.00000000E+00  0.00000000E+00
  0.00000000E+00  0.00000000E+00  0.00000000E+00
  0.00000000E+00  0.00000000E+00  0.00000000E+00
  0.00000000E+00  0.00000000E+00  0.00000000E+00
  0.00000000E+00  0.00000000E+00  0.00000000E+00
  0.00000000E+00  0.00000000E+00  0.00000000E+00
  0.00000000E+00  0.00000000E+00  0.00000000E+00
  0.00000000E+00  0.00000000E+00  0.00000000E+00
  0.00000000E+00  0.00000000E+00  0.00000000E+00
  0.00000000E+00  0.00000000E+00  0.00000000E+00
  0.00000000E+00  0.00000000E+00  0.00000000E+00
  0.00000000E+00  0.00000000E+00  0.00000000E+00
  0.00000000E+00  0.00000000E+00  0.00000000E+00
  0.00000000E+00  0.00000000E+00  0.00000000E+00
  0.00000000E+00  0.00000000E+00  0.00000000E+00
  0.00000000E+00  0.00000000E+00  0.00000000E+00
  0.00000000E+00  0.00000000E+00  0.00000000E+00
  0.00000000E+00  0.00000000E+00  0.00000000E+00
  0.00000000E+00  0.00000000E+00  0.00000000E+00
  0.00000000E+00  0.00000000E+00  0.00000000E+00
  0.00000000E+00  0.00000000E+00  0.00000000E+00
  0.00000000E+00  0.00000000E+00  0.00000000E+00
