5L_3x3_(1\1\1)                          
   1.00000000000000     
     8.4506998061999994    0.0000000000000000    0.0000000000000000
    -4.2253499030999997    7.3185207118999998    0.0000000000000000
     0.0000000000000000    0.0000000000000000   24.2000007629000002
   Ir   Pd   Pt   Rh   Ru   H 
     9     9     8     9     9     1
Direct
  0.9922324855239008  0.0024141810233194  0.1261095931367868
  0.1064657616401165  0.2102988724394202  0.2156667126415632
  0.5606025254147385  0.1186721230375911  0.0396946478931723
  0.2394755988328038  0.4520305525850335  0.0409467503386828
  0.5463226934140681  0.4383184349437524  0.0392809891621862
  0.3339433918253665  0.6721308793590732  0.1253039787964918
  0.3176264000493320  0.6691754887972415  0.3940028581967747
  0.5520133463507478  0.7765563489180018  0.0385253801680530
  0.6612155867097137  0.6672776450667298  0.1271912778735408
  0.2181648120888277  0.1141869505627486  0.0346616825294205
  0.2204814161034442  0.1028422762234891  0.3111632010574668
  0.7714732118011365  0.2214369681328650  0.2153248448305406
  0.9955788439161980  0.3261845496521482  0.4035388004546328
  0.1088279083939022  0.5593303562711225  0.2158581504071898
  0.3362990755716185  0.3399168482738001  0.3995831516920868
  0.8792140644188301  0.4378573038890820  0.0346132100852129
  0.8893098484524070  0.4445534165964151  0.3055358209185824
  0.2247182707649198  0.7773865636791077  0.0342627069012252
  0.8846581837645829  0.1056170719162621  0.3068857517036181
  0.2146048880452781  0.4379237178962097  0.3071290054951338
  0.5556558580411090  0.4389685100213349  0.3058402356543656
  0.4414968176817899  0.5487602798638860  0.2147726045071740
  0.9937118841439657  0.6637491290451275  0.1264495563404830
  0.5502201576714165  0.7796713120630566  0.3055605496560356
  0.4443876194320172  0.8973754034046212  0.2166492034206481
  0.6648094170202359  0.6609318573927933  0.3992680088896706
  0.3356995511381703  0.0056518860741571  0.1290878530579062
  0.5497946984892348  0.1113082632198597  0.3136391998282704
  0.6598988362882654  0.9839491245340054  0.3979117093889501
  0.8716066195167175  0.1013529263956637  0.0371334222469637
 -0.0010015035599314  0.3256883207601698  0.1254112756280733
  0.2244894180666129  0.7898576982848757  0.3118636440675796
  0.1009128604103144  0.8910624429002912  0.2154040077523444
  0.8652160963292681  0.7741787068199524  0.0378984506913856
  0.8919289330595320  0.7765898898013613  0.3055065001412759
  0.9749226439918534  0.9710334772307218  0.3940630616569846
  0.4474525986933373  0.2303130148836245  0.2149402884145710
  0.6647668594913059 -0.0014533337570085  0.1238613448007921
  0.3266339125184102  0.3209383421432205  0.1277696327421894
  0.6469007904935398  0.3263287432620376  0.1272147999251072
  0.6866882927675603  0.3579903204018747  0.3944560711121546
  0.7619869044524559  0.5534979132663587  0.2134883819638841
 -0.0023753089310828  0.6683923358715733  0.3926715591325929
  0.7853001295746038  0.8865554053445139  0.2149164931140999
  0.7516121395331994  0.2036487620597026  0.4328184604915564
 
  0.00000000E+00  0.00000000E+00  0.00000000E+00
  0.00000000E+00  0.00000000E+00  0.00000000E+00
  0.00000000E+00  0.00000000E+00  0.00000000E+00
  0.00000000E+00  0.00000000E+00  0.00000000E+00
  0.00000000E+00  0.00000000E+00  0.00000000E+00
  0.00000000E+00  0.00000000E+00  0.00000000E+00
  0.00000000E+00  0.00000000E+00  0.00000000E+00
  0.00000000E+00  0.00000000E+00  0.00000000E+00
  0.00000000E+00  0.00000000E+00  0.00000000E+00
  0.00000000E+00  0.00000000E+00  0.00000000E+00
  0.00000000E+00  0.00000000E+00  0.00000000E+00
  0.00000000E+00  0.00000000E+00  0.00000000E+00
  0.00000000E+00  0.00000000E+00  0.00000000E+00
  0.00000000E+00  0.00000000E+00  0.00000000E+00
  0.00000000E+00  0.00000000E+00  0.00000000E+00
  0.00000000E+00  0.00000000E+00  0.00000000E+00
  0.00000000E+00  0.00000000E+00  0.00000000E+00
  0.00000000E+00  0.00000000E+00  0.00000000E+00
  0.00000000E+00  0.00000000E+00  0.00000000E+00
  0.00000000E+00  0.00000000E+00  0.00000000E+00
  0.00000000E+00  0.00000000E+00  0.00000000E+00
  0.00000000E+00  0.00000000E+00  0.00000000E+00
  0.00000000E+00  0.00000000E+00  0.00000000E+00
  0.00000000E+00  0.00000000E+00  0.00000000E+00
  0.00000000E+00  0.00000000E+00  0.00000000E+00
  0.00000000E+00  0.00000000E+00  0.00000000E+00
  0.00000000E+00  0.00000000E+00  0.00000000E+00
  0.00000000E+00  0.00000000E+00  0.00000000E+00
  0.00000000E+00  0.00000000E+00  0.00000000E+00
  0.00000000E+00  0.00000000E+00  0.00000000E+00
  0.00000000E+00  0.00000000E+00  0.00000000E+00
  0.00000000E+00  0.00000000E+00  0.00000000E+00
  0.00000000E+00  0.00000000E+00  0.00000000E+00
  0.00000000E+00  0.00000000E+00  0.00000000E+00
  0.00000000E+00  0.00000000E+00  0.00000000E+00
  0.00000000E+00  0.00000000E+00  0.00000000E+00
  0.00000000E+00  0.00000000E+00  0.00000000E+00
  0.00000000E+00  0.00000000E+00  0.00000000E+00
  0.00000000E+00  0.00000000E+00  0.00000000E+00
  0.00000000E+00  0.00000000E+00  0.00000000E+00
  0.00000000E+00  0.00000000E+00  0.00000000E+00
  0.00000000E+00  0.00000000E+00  0.00000000E+00
  0.00000000E+00  0.00000000E+00  0.00000000E+00
  0.00000000E+00  0.00000000E+00  0.00000000E+00
  0.00000000E+00  0.00000000E+00  0.00000000E+00
