step                                    
   1.00000000000000     
     8.4506998061999994    0.0000000000000000    0.0000000000000000
    -4.2253499030999997    7.3185207118999998    0.0000000000000000
     0.0000000000000000    0.0000000000000000   24.2000007629000002
   Ir   Pd   Pt   Rh   Ru   H 
     9    10     9    10    10     1
Direct
  0.9958068820945888  0.0041177331158064  0.1267046572412800
  0.1123042758514390  0.2106459417853457  0.2161061607023058
  0.5649800738694642  0.1203092235582772  0.0403377270731237
  0.2434653355763148  0.4533716251386550  0.0412165015062511
  0.5503410422884355  0.4398067842712490  0.0400607923745470
  0.3354704771872458  0.6723363698448164  0.1252909641897172
  0.3269643469981737  0.6762575639807115  0.3954910413322098
  0.5554412392310635  0.7775253300559377  0.0396408298549920
  0.6676226040688987  0.6681914588229398  0.1279973536459275
  0.2217639913656025  0.1155397025347083  0.0350573592459681
  0.2204337283808370  0.1081985716867537  0.3080691800622852
  0.7751300841229614  0.2231438373317380  0.2172145341334394
  0.0172723016753439  0.3396570167841932  0.4029507053749418
  0.1091593228199463  0.5561116604548636  0.2165255852106716
  0.3324258726346573  0.3343222032679448  0.4033147963951448
  0.8836025914538387  0.4396556520423471  0.0351047023835288
  0.8871572599736051  0.4468595533359564  0.3116760804334052
  0.2278120450225657  0.7787153554441002  0.0349190828740810
  0.8071494780701535  0.9093545764782354  0.4847665409964386
  0.3211027027678421 -0.0080494234135108  0.4024581402613308
  0.8883508194305558  0.1061704741978313  0.3090020465819081
  0.2192944864361793  0.4435731858738434  0.3078571038934523
  0.5599376346957143  0.4421061509947122  0.3080000577556034
  0.4435541607438489  0.5498570152927782  0.2144775744764789
  0.9964171087147892  0.6637177534848331  0.1275183105676123
  0.5564012268641476  0.7829541673554806  0.3063461457834205
  0.4506561094103216  0.8955349636377572  0.2155204180562965
  0.6538012256268088  0.6662359507062785  0.3997075003750438
  0.3392491273805830  0.0073937276144023  0.1292636179704496
  0.5543213955701494  0.1121807186283695  0.3098439093891273
  0.6538223630300759  0.9955737885569252  0.4020977461805518
  0.8735967023799099  0.1018960574113949  0.0373464862036924
  0.0019471673631985  0.3260224748034528  0.1263123491906953
  0.2200136732977562  0.7780169756954375  0.3068748146609336
  0.1053289418745056  0.8909206105722421  0.2162319850979134
  0.8698787865416305  0.7764689927737997  0.0386431725747466
  0.8946969415687076  0.7776466399216023  0.3077781890735145
  0.8226235675766747  0.5611101471934437  0.4731312881168861
  0.9901091844606095  0.9773397646417245  0.3965828745714771
  0.4528967131720870  0.2329127370883582  0.2152465683676411
  0.6703576359473656  0.0006456745445799  0.1248585908753873
  0.3291094238103628  0.3208704214498537  0.1279486756806995
  0.6526074039680814  0.3285180575465078  0.1278877654301368
  0.6428313554648828  0.3077742087029672  0.4010458789301021
  0.7646024484213823  0.5549940535628133  0.2154389561279419
  0.0192315434127941  0.6879771867802972  0.3981412449806588
  0.7889247142107241  0.8861941136242917  0.2157934092433684
  0.7854637827672613  0.2409170675554135  0.4765783416991479
  0.4329284574059038  0.2067458012675365  0.4416622458535212
 
  0.00000000E+00  0.00000000E+00  0.00000000E+00
  0.00000000E+00  0.00000000E+00  0.00000000E+00
  0.00000000E+00  0.00000000E+00  0.00000000E+00
  0.00000000E+00  0.00000000E+00  0.00000000E+00
  0.00000000E+00  0.00000000E+00  0.00000000E+00
  0.00000000E+00  0.00000000E+00  0.00000000E+00
  0.00000000E+00  0.00000000E+00  0.00000000E+00
  0.00000000E+00  0.00000000E+00  0.00000000E+00
  0.00000000E+00  0.00000000E+00  0.00000000E+00
  0.00000000E+00  0.00000000E+00  0.00000000E+00
  0.00000000E+00  0.00000000E+00  0.00000000E+00
  0.00000000E+00  0.00000000E+00  0.00000000E+00
  0.00000000E+00  0.00000000E+00  0.00000000E+00
  0.00000000E+00  0.00000000E+00  0.00000000E+00
  0.00000000E+00  0.00000000E+00  0.00000000E+00
  0.00000000E+00  0.00000000E+00  0.00000000E+00
  0.00000000E+00  0.00000000E+00  0.00000000E+00
  0.00000000E+00  0.00000000E+00  0.00000000E+00
  0.00000000E+00  0.00000000E+00  0.00000000E+00
  0.00000000E+00  0.00000000E+00  0.00000000E+00
  0.00000000E+00  0.00000000E+00  0.00000000E+00
  0.00000000E+00  0.00000000E+00  0.00000000E+00
  0.00000000E+00  0.00000000E+00  0.00000000E+00
  0.00000000E+00  0.00000000E+00  0.00000000E+00
  0.00000000E+00  0.00000000E+00  0.00000000E+00
  0.00000000E+00  0.00000000E+00  0.00000000E+00
  0.00000000E+00  0.00000000E+00  0.00000000E+00
  0.00000000E+00  0.00000000E+00  0.00000000E+00
  0.00000000E+00  0.00000000E+00  0.00000000E+00
  0.00000000E+00  0.00000000E+00  0.00000000E+00
  0.00000000E+00  0.00000000E+00  0.00000000E+00
  0.00000000E+00  0.00000000E+00  0.00000000E+00
  0.00000000E+00  0.00000000E+00  0.00000000E+00
  0.00000000E+00  0.00000000E+00  0.00000000E+00
  0.00000000E+00  0.00000000E+00  0.00000000E+00
  0.00000000E+00  0.00000000E+00  0.00000000E+00
  0.00000000E+00  0.00000000E+00  0.00000000E+00
  0.00000000E+00  0.00000000E+00  0.00000000E+00
  0.00000000E+00  0.00000000E+00  0.00000000E+00
  0.00000000E+00  0.00000000E+00  0.00000000E+00
  0.00000000E+00  0.00000000E+00  0.00000000E+00
  0.00000000E+00  0.00000000E+00  0.00000000E+00
  0.00000000E+00  0.00000000E+00  0.00000000E+00
  0.00000000E+00  0.00000000E+00  0.00000000E+00
  0.00000000E+00  0.00000000E+00  0.00000000E+00
  0.00000000E+00  0.00000000E+00  0.00000000E+00
  0.00000000E+00  0.00000000E+00  0.00000000E+00
  0.00000000E+00  0.00000000E+00  0.00000000E+00
  0.00000000E+00  0.00000000E+00  0.00000000E+00
