step                                    
   1.00000000000000     
     8.4506998061999994    0.0000000000000000    0.0000000000000000
    -4.2253499030999997    7.3185207118999998    0.0000000000000000
     0.0000000000000000    0.0000000000000000   24.2000007629000002
   Ir   Pd   Pt   Rh   Ru   H 
    10     9    10     9    10     1
Direct
  0.9949978873968768  0.0042987840601414  0.1251034508725496
  0.1119328873288560  0.2109069859555431  0.2144738812599065
  0.5641931744038838  0.1202063782812421  0.0387449492625642
  0.2432968583354390  0.4536102311458108  0.0395104729486591
  0.5495884124690406  0.4394977502439487  0.0384892426581128
  0.3344533421722261  0.6716644351490295  0.1238431934559336
  0.3274125996096330  0.6779786565811571  0.3937577900636602
  0.5545982793119383  0.7772136499713889  0.0382014273683020
  0.6671055435610748  0.6684915495998391  0.1265575159220045
  0.8108974059041822  0.5638452642965468  0.4696474743074793
  0.2206565751013621  0.1154665250825947  0.0333952141240898
  0.2215590430584368  0.1084883722250039  0.3056112674901587
  0.7754822983536911  0.2235100262192792  0.2158905494444732
  0.0199187491486817  0.3384009663412381  0.4026089182205100
  0.1081939793601740  0.5564402081297480  0.2154083691914228
  0.3333902705347571  0.3246913268921184  0.4010356699172133
  0.8827808373245916  0.4394669157742208  0.0333623950882536
  0.8858426713110995  0.4455115186973584  0.3118226140757604
  0.2271138160615575  0.7783767741961835  0.0334028805735924
  0.3252082472101405 -0.0041168230796051  0.3994123255140103
  0.8878574893090967  0.1052446922914956  0.3082070594407793
  0.2184950778696599  0.4424493238740395  0.3067971340047174
  0.5604809337719420  0.4426601320165539  0.3063368948196983
  0.4420792547510390  0.5490841381798606  0.2129307081758220
  0.9958294924509746  0.6634583633413408  0.1259866020832327
  0.5545914712159868  0.7828550509865311  0.3035104047227785
  0.4494296064012797  0.8974179237236145  0.2135510071356449
  0.6461157944958268  0.6628497736349384  0.3965208528288121
  0.8091685628366261  0.8904129545954695  0.4801634858496002
  0.3381565715099818  0.0079378304063221  0.1273748078403166
  0.5573003953999867  0.1128203488310137  0.3084567893394380
  0.6514646814452139  0.9914678007661482  0.4022563609971806
  0.8727070831088239  0.1014230608301092  0.0356699999660364
  0.0016542446630172  0.3265213717288896  0.1246302154547025
  0.2176066717806663  0.7769899364900490  0.3052971558152915
  0.1056061828897166  0.8918468830141127  0.2144407396003599
  0.8691616236709310  0.7764734852799243  0.0371903837091040
  0.8951363527087099  0.7790299981430572  0.3063339190853033
  0.0006282606522789  0.9825347119357183  0.3956733264002690
  0.4537496865806043  0.2333284776241547  0.2133791928159230
  0.6704801197497622  0.0013128314100008  0.1231633346134046
  0.3290035851161712  0.3217927408926438  0.1264596979066690
  0.6530696613486571  0.3292716869509428  0.1262018653916149
  0.6373549250346691  0.3005661389036111  0.4009036268384160
  0.7642850703595335  0.5551076635519904  0.2139759854865236
  0.0230186691244929  0.6885655265772466  0.3973118687539016
  0.7885730425444060  0.8865137805221230  0.2145215739209080
  0.7811036965696153  0.2446701965149692  0.4753574944984409
  0.8792086566826720  0.4652432872203305  0.5191579137464539
 
  0.00000000E+00  0.00000000E+00  0.00000000E+00
  0.00000000E+00  0.00000000E+00  0.00000000E+00
  0.00000000E+00  0.00000000E+00  0.00000000E+00
  0.00000000E+00  0.00000000E+00  0.00000000E+00
  0.00000000E+00  0.00000000E+00  0.00000000E+00
  0.00000000E+00  0.00000000E+00  0.00000000E+00
  0.00000000E+00  0.00000000E+00  0.00000000E+00
  0.00000000E+00  0.00000000E+00  0.00000000E+00
  0.00000000E+00  0.00000000E+00  0.00000000E+00
  0.00000000E+00  0.00000000E+00  0.00000000E+00
  0.00000000E+00  0.00000000E+00  0.00000000E+00
  0.00000000E+00  0.00000000E+00  0.00000000E+00
  0.00000000E+00  0.00000000E+00  0.00000000E+00
  0.00000000E+00  0.00000000E+00  0.00000000E+00
  0.00000000E+00  0.00000000E+00  0.00000000E+00
  0.00000000E+00  0.00000000E+00  0.00000000E+00
  0.00000000E+00  0.00000000E+00  0.00000000E+00
  0.00000000E+00  0.00000000E+00  0.00000000E+00
  0.00000000E+00  0.00000000E+00  0.00000000E+00
  0.00000000E+00  0.00000000E+00  0.00000000E+00
  0.00000000E+00  0.00000000E+00  0.00000000E+00
  0.00000000E+00  0.00000000E+00  0.00000000E+00
  0.00000000E+00  0.00000000E+00  0.00000000E+00
  0.00000000E+00  0.00000000E+00  0.00000000E+00
  0.00000000E+00  0.00000000E+00  0.00000000E+00
  0.00000000E+00  0.00000000E+00  0.00000000E+00
  0.00000000E+00  0.00000000E+00  0.00000000E+00
  0.00000000E+00  0.00000000E+00  0.00000000E+00
  0.00000000E+00  0.00000000E+00  0.00000000E+00
  0.00000000E+00  0.00000000E+00  0.00000000E+00
  0.00000000E+00  0.00000000E+00  0.00000000E+00
  0.00000000E+00  0.00000000E+00  0.00000000E+00
  0.00000000E+00  0.00000000E+00  0.00000000E+00
  0.00000000E+00  0.00000000E+00  0.00000000E+00
  0.00000000E+00  0.00000000E+00  0.00000000E+00
  0.00000000E+00  0.00000000E+00  0.00000000E+00
  0.00000000E+00  0.00000000E+00  0.00000000E+00
  0.00000000E+00  0.00000000E+00  0.00000000E+00
  0.00000000E+00  0.00000000E+00  0.00000000E+00
  0.00000000E+00  0.00000000E+00  0.00000000E+00
  0.00000000E+00  0.00000000E+00  0.00000000E+00
  0.00000000E+00  0.00000000E+00  0.00000000E+00
  0.00000000E+00  0.00000000E+00  0.00000000E+00
  0.00000000E+00  0.00000000E+00  0.00000000E+00
  0.00000000E+00  0.00000000E+00  0.00000000E+00
  0.00000000E+00  0.00000000E+00  0.00000000E+00
  0.00000000E+00  0.00000000E+00  0.00000000E+00
  0.00000000E+00  0.00000000E+00  0.00000000E+00
  0.00000000E+00  0.00000000E+00  0.00000000E+00
