step                                    
   1.00000000000000     
     8.4506998061999994    0.0000000000000000    0.0000000000000000
    -4.2253499030999997    7.3185207118999998    0.0000000000000000
     0.0000000000000000    0.0000000000000000   24.2000007629000002
   Ir   Pd   Pt   Rh   Ru   H 
    10     9     9    11     9     1
Direct
  0.9963845910515181  0.0044558700140137  0.1269641821403944
  0.1119701727263859  0.2104537770272825  0.2163413450676212
  0.5656726092962565  0.1205364781550495  0.0404737192547285
  0.2439609023434485  0.4538062100355120  0.0409580939540466
  0.5507672209803690  0.4397950806892217  0.0401895788055932
  0.3353392820130513  0.6710358790609617  0.1253378049838482
  0.3275589754017380  0.6825472602031852  0.3958761271952034
  0.5556563385035992  0.7779108762601155  0.0397420589278379
  0.6660557064967503  0.6678917973588091  0.1284914635350651
  0.8085312994730860  0.5678828711526029  0.4680204365350894
  0.2218081445015997  0.1162042658999852  0.0350932054849170
  0.2219106082700209  0.1082560942788628  0.3073995255268243
  0.7762560564568864  0.2232555946724387  0.2171868047155801
  0.0079717415186250  0.3376332121435025  0.4056153353691416
  0.1086475826562124  0.5559098776628131  0.2168066143803482
  0.3310065311420515  0.3241154139886046  0.4040212384611361
  0.8840257155938456  0.4396410467129740  0.0351416506157187
  0.8859643349757917  0.4453805131312968  0.3124174335082319
  0.2276905517963545  0.7786556803143939  0.0350609455020561
  0.3267311577303934 -0.0036232223544058  0.4010946954309889
  0.8888831934859606  0.1052810570824163  0.3101201701822250
  0.2178150661354711  0.4423532562232748  0.3093056973345910
  0.5595526680316821  0.4407857759129595  0.3082858897029078
  0.4420470367871431  0.5491606074798164  0.2153537622892344
  0.9961784962392329  0.6638247329854012  0.1277091464942073
  0.5558292034079141  0.7836493883527172  0.3057435747239980
  0.4513357606451527  0.8967624660366098  0.2149560986504335
  0.6367386945966300  0.6627557641730519  0.3979988745187203
  0.3386531578035861  0.0077728026103471  0.1288848906241246
  0.5563987452836210  0.1118160606560928  0.3090321342668522
  0.6522387268255555  0.9957191370762327  0.4043093592197655
  0.8739729452871416  0.1015331950671560  0.0373597774690748
  0.0028822449995753  0.3263644208175883  0.1262912262278333
  0.2187080134300224  0.7760772193116203  0.3063869330477778
  0.1066307092963221  0.8919379410694444  0.2164103651071890
  0.8700397214154840  0.7766462147773662  0.0390813553434740
  0.8946559197556526  0.7771390489254666  0.3083183795343070
  0.8154528631682144  0.8701818322151041  0.4801863741946858
  0.7699522817163429  0.2590394890638246  0.4833652106861006
 -0.0031507152054217  0.9815066034432173  0.3994341972324498
  0.4535303734074951  0.2317894641670089  0.2146222446578012
  0.6714593880133577  0.0004220075722498  0.1248520565703916
  0.3297504093793631  0.3227526855027282  0.1283804202280549
  0.6539588813307162  0.3300713850155580  0.1279725255443152
  0.6383808028611018  0.2998815218960887  0.3991955650618956
  0.7647025980879484  0.5547777633901065  0.2155225894059269
  0.0257947149488567  0.6859818344528026  0.3979595573691845
  0.7898797773864661  0.8866717090846196  0.2162084783901713
  0.1043885305514165  0.2058796592319032  0.4365608895279340
 
  0.00000000E+00  0.00000000E+00  0.00000000E+00
  0.00000000E+00  0.00000000E+00  0.00000000E+00
  0.00000000E+00  0.00000000E+00  0.00000000E+00
  0.00000000E+00  0.00000000E+00  0.00000000E+00
  0.00000000E+00  0.00000000E+00  0.00000000E+00
  0.00000000E+00  0.00000000E+00  0.00000000E+00
  0.00000000E+00  0.00000000E+00  0.00000000E+00
  0.00000000E+00  0.00000000E+00  0.00000000E+00
  0.00000000E+00  0.00000000E+00  0.00000000E+00
  0.00000000E+00  0.00000000E+00  0.00000000E+00
  0.00000000E+00  0.00000000E+00  0.00000000E+00
  0.00000000E+00  0.00000000E+00  0.00000000E+00
  0.00000000E+00  0.00000000E+00  0.00000000E+00
  0.00000000E+00  0.00000000E+00  0.00000000E+00
  0.00000000E+00  0.00000000E+00  0.00000000E+00
  0.00000000E+00  0.00000000E+00  0.00000000E+00
  0.00000000E+00  0.00000000E+00  0.00000000E+00
  0.00000000E+00  0.00000000E+00  0.00000000E+00
  0.00000000E+00  0.00000000E+00  0.00000000E+00
  0.00000000E+00  0.00000000E+00  0.00000000E+00
  0.00000000E+00  0.00000000E+00  0.00000000E+00
  0.00000000E+00  0.00000000E+00  0.00000000E+00
  0.00000000E+00  0.00000000E+00  0.00000000E+00
  0.00000000E+00  0.00000000E+00  0.00000000E+00
  0.00000000E+00  0.00000000E+00  0.00000000E+00
  0.00000000E+00  0.00000000E+00  0.00000000E+00
  0.00000000E+00  0.00000000E+00  0.00000000E+00
  0.00000000E+00  0.00000000E+00  0.00000000E+00
  0.00000000E+00  0.00000000E+00  0.00000000E+00
  0.00000000E+00  0.00000000E+00  0.00000000E+00
  0.00000000E+00  0.00000000E+00  0.00000000E+00
  0.00000000E+00  0.00000000E+00  0.00000000E+00
  0.00000000E+00  0.00000000E+00  0.00000000E+00
  0.00000000E+00  0.00000000E+00  0.00000000E+00
  0.00000000E+00  0.00000000E+00  0.00000000E+00
  0.00000000E+00  0.00000000E+00  0.00000000E+00
  0.00000000E+00  0.00000000E+00  0.00000000E+00
  0.00000000E+00  0.00000000E+00  0.00000000E+00
  0.00000000E+00  0.00000000E+00  0.00000000E+00
  0.00000000E+00  0.00000000E+00  0.00000000E+00
  0.00000000E+00  0.00000000E+00  0.00000000E+00
  0.00000000E+00  0.00000000E+00  0.00000000E+00
  0.00000000E+00  0.00000000E+00  0.00000000E+00
  0.00000000E+00  0.00000000E+00  0.00000000E+00
  0.00000000E+00  0.00000000E+00  0.00000000E+00
  0.00000000E+00  0.00000000E+00  0.00000000E+00
  0.00000000E+00  0.00000000E+00  0.00000000E+00
  0.00000000E+00  0.00000000E+00  0.00000000E+00
  0.00000000E+00  0.00000000E+00  0.00000000E+00
