5L_3x3_(1\1\1)                          
   1.00000000000000     
     8.4506998061999994    0.0000000000000000    0.0000000000000000
    -4.2253499030999997    7.3185207118999998    0.0000000000000000
     0.0000000000000000    0.0000000000000000   24.2000007629000002
   Ir   Pd   Pt   Rh   Ru   H 
     9     9     9     8     9     1
Direct
  0.9952212664832231  0.0043999198871968  0.1262312575154064
  0.1130352921787919  0.2122245689338143  0.2153948296100108
  0.5647758412111773  0.1205328278904242  0.0396644310658812
  0.2449811144551367  0.4548193591524800  0.0409048981934613
  0.5502969716969456  0.4396509823439055  0.0396079640283644
  0.3381536737725537  0.6749674023556949  0.1251616997432257
  0.3120944680197833  0.6605038335518211  0.3943446612065821
  0.5553318724444644  0.7790819105140576  0.0386106848945074
  0.6654382339126415  0.6694388388256247  0.1272148304912008
  0.2220526332288916  0.1171879748589659  0.0351520920320737
  0.2247328727490508  0.1108475322322075  0.3065922637292982
  0.7769486197194115  0.2213678407472504  0.2160821451567590
  0.9938919786659858  0.3364122081265803  0.4006923490730866
  0.1124640610304513  0.5605482338384026  0.2151082886870080
  0.3338530766847566  0.3407596563687957  0.4016944106318689
  0.8836993849480881  0.4401513231229045  0.0341046227134304
  0.8901264677358114  0.4467685337537040  0.3059925207691195
  0.2289081794358486  0.7799885697337050  0.0342042322238833
  0.3351721712071213 -0.0031665663388974  0.3997970042364182
  0.8849418045557517  0.1025834123608262  0.3116386660127222
  0.2167050017017505  0.4405764717878688  0.3062576618093498
  0.5589678602806771  0.4445344962556020  0.3053997780280652
  0.4463210351764312  0.5526993482314070  0.2149031916028403
  0.9968980036174807  0.6649050108490472  0.1262234216135319
  0.5563765820746331  0.7901864109931122  0.3095496597409561
  0.4498795028357297  0.8979315073443871  0.2169325019221262
  0.6693537700815848  0.6704969693140029  0.3976241352226094
  0.3412178942863016  0.0076102415709715  0.1291440295529355
  0.5639647438944578  0.1154767422085567  0.3127852804862433
  0.8756576562890838  0.1029126884664107  0.0371045191892181
  0.0031154742812638  0.3277357956749638  0.1252032197434810
  0.2226549073323436  0.7825030154870842  0.3082787069104654
  0.1038802340038180  0.8914792468003423  0.2149577197481371
  0.8696979280245370  0.7771543851137153  0.0379060851629973
  0.8917699685390316  0.7798295688518788  0.3057515228400856
  0.0025330268814244  0.9705642690345622  0.3943624047528113
  0.4548453820042444  0.2329878541005548  0.2147622173459650
  0.6706431585608222  0.0010983425265099  0.1244426586082836
  0.3323305391253148  0.3235162674254712  0.1285899673818965
  0.6540891784476751  0.3285463736485292  0.1269225728675794
  0.6727629435721896  0.3556688293416853  0.3939749226493172
  0.7664125575459514  0.5555398745182606  0.2135931955969184
  0.0029471234263233  0.6728375446116149  0.3937574513719630
  0.7883134479423478  0.8868760290426858  0.2151244065365890
  0.4561840278920281  0.2115294525122477  0.4354133702794572
 
  0.00000000E+00  0.00000000E+00  0.00000000E+00
  0.00000000E+00  0.00000000E+00  0.00000000E+00
  0.00000000E+00  0.00000000E+00  0.00000000E+00
  0.00000000E+00  0.00000000E+00  0.00000000E+00
  0.00000000E+00  0.00000000E+00  0.00000000E+00
  0.00000000E+00  0.00000000E+00  0.00000000E+00
  0.00000000E+00  0.00000000E+00  0.00000000E+00
  0.00000000E+00  0.00000000E+00  0.00000000E+00
  0.00000000E+00  0.00000000E+00  0.00000000E+00
  0.00000000E+00  0.00000000E+00  0.00000000E+00
  0.00000000E+00  0.00000000E+00  0.00000000E+00
  0.00000000E+00  0.00000000E+00  0.00000000E+00
  0.00000000E+00  0.00000000E+00  0.00000000E+00
  0.00000000E+00  0.00000000E+00  0.00000000E+00
  0.00000000E+00  0.00000000E+00  0.00000000E+00
  0.00000000E+00  0.00000000E+00  0.00000000E+00
  0.00000000E+00  0.00000000E+00  0.00000000E+00
  0.00000000E+00  0.00000000E+00  0.00000000E+00
  0.00000000E+00  0.00000000E+00  0.00000000E+00
  0.00000000E+00  0.00000000E+00  0.00000000E+00
  0.00000000E+00  0.00000000E+00  0.00000000E+00
  0.00000000E+00  0.00000000E+00  0.00000000E+00
  0.00000000E+00  0.00000000E+00  0.00000000E+00
  0.00000000E+00  0.00000000E+00  0.00000000E+00
  0.00000000E+00  0.00000000E+00  0.00000000E+00
  0.00000000E+00  0.00000000E+00  0.00000000E+00
  0.00000000E+00  0.00000000E+00  0.00000000E+00
  0.00000000E+00  0.00000000E+00  0.00000000E+00
  0.00000000E+00  0.00000000E+00  0.00000000E+00
  0.00000000E+00  0.00000000E+00  0.00000000E+00
  0.00000000E+00  0.00000000E+00  0.00000000E+00
  0.00000000E+00  0.00000000E+00  0.00000000E+00
  0.00000000E+00  0.00000000E+00  0.00000000E+00
  0.00000000E+00  0.00000000E+00  0.00000000E+00
  0.00000000E+00  0.00000000E+00  0.00000000E+00
  0.00000000E+00  0.00000000E+00  0.00000000E+00
  0.00000000E+00  0.00000000E+00  0.00000000E+00
  0.00000000E+00  0.00000000E+00  0.00000000E+00
  0.00000000E+00  0.00000000E+00  0.00000000E+00
  0.00000000E+00  0.00000000E+00  0.00000000E+00
  0.00000000E+00  0.00000000E+00  0.00000000E+00
  0.00000000E+00  0.00000000E+00  0.00000000E+00
  0.00000000E+00  0.00000000E+00  0.00000000E+00
  0.00000000E+00  0.00000000E+00  0.00000000E+00
  0.00000000E+00  0.00000000E+00  0.00000000E+00
