step                                    
   1.00000000000000     
     8.4506998061999994    0.0000000000000000    0.0000000000000000
    -4.2253499030999997    7.3185207118999998    0.0000000000000000
     0.0000000000000000    0.0000000000000000   24.2000007629000002
   Ir   Pd   Pt   Rh   Ru   H 
    10    10     9     9    10     1
Direct
  0.5529293862649898  0.1097363109131690  0.0387016688072585
  0.5455607102669835  0.1097969893827945  0.3072734668542033
  0.7706228716883844  0.2307965828005596  0.2167879423468182
  0.0193280180032097  0.3526650334339639  0.3957451254771595
  0.3215691639405969  0.3315386067330454  0.1255148313018524
  0.8653684065410149  0.4383025057660903  0.3091789558871230
  0.9930873314305718  0.6587515610481731  0.1246521143962448
  0.3269297763439848  0.6572371106902215  0.3909347044660642
  0.8842098410970181  0.7753082551337058  0.3064831062748228
  0.8049007409135435  0.2553207658220096  0.4709207231033481
 -0.0046001153429842  0.0042094252838681  0.3990933009521850
  0.2231393461297006  0.1172881097501934  0.0307762015714015
  0.3266355552878039  0.0052368030777364  0.3997468709729177
  0.6400360591998643  0.9882398693869199  0.3974337879454149
  0.2201614360159184  0.4446655626175212  0.3024777831874969
  0.8860747153278407  0.4444537725545696  0.0318699465114988
  0.1023433601525632  0.8842886542179671  0.2151172656175108
  0.4463302543637133  0.8901690560726717  0.2151340765696674
  0.7720403121014801  0.8898834097183798  0.2157805955360162
  0.7648376789690705  0.8984489920437201  0.4856015251970931
 -0.0001481871449479  0.0067747286150238  0.1251117724295108
  0.8835884499183542  0.1100669314852003  0.3059784196932969
  0.0962974504420746  0.5467078207986980  0.2157227342177591
  0.0184649646983669  0.6734186121964860  0.3985790812765341
  0.3271472300297972  0.6670343231653669  0.1271387619167393
  0.5518151749125196  0.7835335489529016  0.0352621125068891
  0.6638687171875135  0.6651898624502066  0.1269672879336992
  0.6446210516763361  0.6582162100788231  0.3993373714856046
  0.8848835687816623  0.7750065594117148  0.0350135551981962
  0.3328433803991857  0.0059306247112688  0.1252959785170803
  0.4388345873347296  0.2316132856271255  0.2163881079599703
  0.8788321214915064  0.1193941038468142  0.0368560959934598
  0.3240749661173434  0.3365138715035276  0.3936057111414497
  0.5412527561797563  0.4382513224996648  0.0371470780245541
  0.5542006777921902  0.4450779632822772  0.3049387333644180
  0.6656234796548371  0.3312799306671902  0.1269453463439109
  0.2236236354634681  0.7785627340324625  0.0370898956358476
  0.2204887868971571  0.7886897142508269  0.3066319267704594
  0.2122026574862571  0.0984995034483413  0.3048950298334311
  0.1220016376834688  0.2344445475776837  0.2153789808500191
  0.6750932764096951  0.0232896086218701  0.1246959007632134
  0.9926018072191899  0.3247674131229739  0.1252166106148944
  0.2226409019252771  0.4473914936976222  0.0404971714822537
  0.4451618580401251  0.5449079488716119  0.2148873028210135
  0.6171132556169209  0.3277469701154574  0.3967507718931481
  0.7624577698783881  0.5472042543421760  0.2170001282174821
  0.5541302713274442  0.7781445309441392  0.3054372541562173
  0.7881775534128060  0.5293790566341209  0.4713647175283352
  0.7948912154733175  0.1034146356011490  0.5202421774545153
 
  0.00000000E+00  0.00000000E+00  0.00000000E+00
  0.00000000E+00  0.00000000E+00  0.00000000E+00
  0.00000000E+00  0.00000000E+00  0.00000000E+00
  0.00000000E+00  0.00000000E+00  0.00000000E+00
  0.00000000E+00  0.00000000E+00  0.00000000E+00
  0.00000000E+00  0.00000000E+00  0.00000000E+00
  0.00000000E+00  0.00000000E+00  0.00000000E+00
  0.00000000E+00  0.00000000E+00  0.00000000E+00
  0.00000000E+00  0.00000000E+00  0.00000000E+00
  0.00000000E+00  0.00000000E+00  0.00000000E+00
  0.00000000E+00  0.00000000E+00  0.00000000E+00
  0.00000000E+00  0.00000000E+00  0.00000000E+00
  0.00000000E+00  0.00000000E+00  0.00000000E+00
  0.00000000E+00  0.00000000E+00  0.00000000E+00
  0.00000000E+00  0.00000000E+00  0.00000000E+00
  0.00000000E+00  0.00000000E+00  0.00000000E+00
  0.00000000E+00  0.00000000E+00  0.00000000E+00
  0.00000000E+00  0.00000000E+00  0.00000000E+00
  0.00000000E+00  0.00000000E+00  0.00000000E+00
  0.00000000E+00  0.00000000E+00  0.00000000E+00
  0.00000000E+00  0.00000000E+00  0.00000000E+00
  0.00000000E+00  0.00000000E+00  0.00000000E+00
  0.00000000E+00  0.00000000E+00  0.00000000E+00
  0.00000000E+00  0.00000000E+00  0.00000000E+00
  0.00000000E+00  0.00000000E+00  0.00000000E+00
  0.00000000E+00  0.00000000E+00  0.00000000E+00
  0.00000000E+00  0.00000000E+00  0.00000000E+00
  0.00000000E+00  0.00000000E+00  0.00000000E+00
  0.00000000E+00  0.00000000E+00  0.00000000E+00
  0.00000000E+00  0.00000000E+00  0.00000000E+00
  0.00000000E+00  0.00000000E+00  0.00000000E+00
  0.00000000E+00  0.00000000E+00  0.00000000E+00
  0.00000000E+00  0.00000000E+00  0.00000000E+00
  0.00000000E+00  0.00000000E+00  0.00000000E+00
  0.00000000E+00  0.00000000E+00  0.00000000E+00
  0.00000000E+00  0.00000000E+00  0.00000000E+00
  0.00000000E+00  0.00000000E+00  0.00000000E+00
  0.00000000E+00  0.00000000E+00  0.00000000E+00
  0.00000000E+00  0.00000000E+00  0.00000000E+00
  0.00000000E+00  0.00000000E+00  0.00000000E+00
  0.00000000E+00  0.00000000E+00  0.00000000E+00
  0.00000000E+00  0.00000000E+00  0.00000000E+00
  0.00000000E+00  0.00000000E+00  0.00000000E+00
  0.00000000E+00  0.00000000E+00  0.00000000E+00
  0.00000000E+00  0.00000000E+00  0.00000000E+00
  0.00000000E+00  0.00000000E+00  0.00000000E+00
  0.00000000E+00  0.00000000E+00  0.00000000E+00
  0.00000000E+00  0.00000000E+00  0.00000000E+00
  0.00000000E+00  0.00000000E+00  0.00000000E+00
