step                                    
   1.00000000000000     
     8.4506998061999994    0.0000000000000000    0.0000000000000000
    -4.2253499030999997    7.3185207118999998    0.0000000000000000
     0.0000000000000000    0.0000000000000000   24.2000007629000002
   Ir   Pd   Pt   Rh   Ru   H 
     9    10     9    10    10     1
Direct
  0.9945278319566769  0.0044443531718221  0.1252239768620952
  0.1110531766266592  0.2103416783185638  0.2146365455581287
  0.5634493043604646  0.1201372509641365  0.0388541618117790
  0.2423011107674100  0.4532566422272603  0.0396787122998881
  0.5488650954790306  0.4394930273827806  0.0385985896697336
  0.3337448229268859  0.6718950258787980  0.1239047525377124
  0.3293746068328113  0.6783317965303624  0.3938082997397104
  0.5540821406430251  0.7772497829269647  0.0382807020703814
  0.6667745815937549  0.6685721504489814  0.1266345441570403
  0.2200873600994181  0.1152017353803266  0.0334022313402658
  0.2211671253154909  0.1080982401225230  0.3059225881263415
  0.7746391787444157  0.2232320658797944  0.2159579715282600
  0.0229101222485507  0.3399654161079807  0.4030055592251292
  0.1073606983151161  0.5562034957046461  0.2157246261295130
  0.3371816326886828  0.3289440622622855  0.4013153974845952
  0.8819361116081057  0.4397276209747086  0.0334564903229140
  0.8853365385740858  0.4446953065859255  0.3123583730318027
  0.2265000181455061  0.7785265324621176  0.0334618868663175
  0.8087910654005325  0.9112484823594331  0.4820755496444580
  0.3263714913666604 -0.0030827981221721  0.3997500803742932
  0.8871849417704283  0.1051961458273163  0.3082934262175991
  0.2177915146066464  0.4416317329074598  0.3068927379706705
  0.5598421915632015  0.4422642989804155  0.3063387007637469
  0.4412083343674896  0.5485580281567208  0.2128610365404149
  0.9952593996196523  0.6632790274605802  0.1260507750843352
  0.5540407121753140  0.7800825959983618  0.3032237024942789
  0.4483252876085024  0.8965916123266685  0.2137321604248283
  0.6538281895738749  0.6669522016825333  0.3978323054360027
  0.3377416079665367  0.0080753616368392  0.1276317203894081
  0.5563247889478008  0.1125935399747291  0.3082391401580304
  0.6504094203209253  0.9881781277386180  0.3996573055528914
  0.8721261292958093  0.1018015585708021  0.0358063469340510
  0.0006822783747366  0.3264930177001301  0.1248606489225621
  0.2180179827577225  0.7771356700325414  0.3056391441979531
  0.1044308676505481  0.8912171328894373  0.2145107804332157
  0.8686228525179024  0.7765652632820591  0.0372064330328418
  0.8943304895063821  0.7773546277721846  0.3063101081111421
  0.8166417622832938  0.5630367318532937  0.4709812604523796
  0.9985217376071144  0.9808772367978682  0.3951758754506096
  0.4526097502527422  0.2331029779531058  0.2135870807833765
  0.6696019442528874  0.0014139626479291  0.1232519611772576
  0.3280740264940236  0.3217161785935126  0.1264204765574944
  0.6523493875707234  0.3289543030231858  0.1262728189138537
  0.6382812815142260  0.3049699144439930  0.4007914981399237
  0.7636025844091878  0.5549961383375653  0.2140249365064401
  0.0219186699655523  0.6913414743082589  0.3972820324625652
  0.7882482627807573  0.8864581675474645  0.2146445213032197
  0.7773579618156979  0.2408049946229949  0.4731301971486790
  0.8881113707370223  0.4456757153661847  0.5153398326598660
 
  0.00000000E+00  0.00000000E+00  0.00000000E+00
  0.00000000E+00  0.00000000E+00  0.00000000E+00
  0.00000000E+00  0.00000000E+00  0.00000000E+00
  0.00000000E+00  0.00000000E+00  0.00000000E+00
  0.00000000E+00  0.00000000E+00  0.00000000E+00
  0.00000000E+00  0.00000000E+00  0.00000000E+00
  0.00000000E+00  0.00000000E+00  0.00000000E+00
  0.00000000E+00  0.00000000E+00  0.00000000E+00
  0.00000000E+00  0.00000000E+00  0.00000000E+00
  0.00000000E+00  0.00000000E+00  0.00000000E+00
  0.00000000E+00  0.00000000E+00  0.00000000E+00
  0.00000000E+00  0.00000000E+00  0.00000000E+00
  0.00000000E+00  0.00000000E+00  0.00000000E+00
  0.00000000E+00  0.00000000E+00  0.00000000E+00
  0.00000000E+00  0.00000000E+00  0.00000000E+00
  0.00000000E+00  0.00000000E+00  0.00000000E+00
  0.00000000E+00  0.00000000E+00  0.00000000E+00
  0.00000000E+00  0.00000000E+00  0.00000000E+00
  0.00000000E+00  0.00000000E+00  0.00000000E+00
  0.00000000E+00  0.00000000E+00  0.00000000E+00
  0.00000000E+00  0.00000000E+00  0.00000000E+00
  0.00000000E+00  0.00000000E+00  0.00000000E+00
  0.00000000E+00  0.00000000E+00  0.00000000E+00
  0.00000000E+00  0.00000000E+00  0.00000000E+00
  0.00000000E+00  0.00000000E+00  0.00000000E+00
  0.00000000E+00  0.00000000E+00  0.00000000E+00
  0.00000000E+00  0.00000000E+00  0.00000000E+00
  0.00000000E+00  0.00000000E+00  0.00000000E+00
  0.00000000E+00  0.00000000E+00  0.00000000E+00
  0.00000000E+00  0.00000000E+00  0.00000000E+00
  0.00000000E+00  0.00000000E+00  0.00000000E+00
  0.00000000E+00  0.00000000E+00  0.00000000E+00
  0.00000000E+00  0.00000000E+00  0.00000000E+00
  0.00000000E+00  0.00000000E+00  0.00000000E+00
  0.00000000E+00  0.00000000E+00  0.00000000E+00
  0.00000000E+00  0.00000000E+00  0.00000000E+00
  0.00000000E+00  0.00000000E+00  0.00000000E+00
  0.00000000E+00  0.00000000E+00  0.00000000E+00
  0.00000000E+00  0.00000000E+00  0.00000000E+00
  0.00000000E+00  0.00000000E+00  0.00000000E+00
  0.00000000E+00  0.00000000E+00  0.00000000E+00
  0.00000000E+00  0.00000000E+00  0.00000000E+00
  0.00000000E+00  0.00000000E+00  0.00000000E+00
  0.00000000E+00  0.00000000E+00  0.00000000E+00
  0.00000000E+00  0.00000000E+00  0.00000000E+00
  0.00000000E+00  0.00000000E+00  0.00000000E+00
  0.00000000E+00  0.00000000E+00  0.00000000E+00
  0.00000000E+00  0.00000000E+00  0.00000000E+00
  0.00000000E+00  0.00000000E+00  0.00000000E+00
