5L_3x3_(1\1\1)                          
   1.00000000000000     
     8.4506998061999994    0.0000000000000000    0.0000000000000000
    -4.2253499030999997    7.3185207118999998    0.0000000000000000
     0.0000000000000000    0.0000000000000000   24.2000007629000002
   Ir   Pd   Pt   Rh   Ru
     9     9     9     9     8
Direct
  0.9975185770740060  0.0045644717276510  0.1253727976948108
  0.1126043112068068  0.2106857937121511  0.2146564664209135
  0.5661137120288362  0.1200094678016370  0.0396485014749242
  0.2442537181476717  0.4534094743068225  0.0397083142905073
  0.5514978116649575  0.4391142223546616  0.0388065091491537
  0.3355647622785163  0.6695944642676060  0.1244584223236835
  0.3471294427536601  0.6786887447730108  0.3926966696094559
  0.5565938654579694  0.7792873942447993  0.0387924486830673
  0.6666408207893766  0.6674107938317912  0.1272657240863029
  0.2223231522738170  0.1157703942318364  0.0337838578956092
  0.2228347149750524  0.1096651287025119  0.3061683787606801
  0.7762171512606942  0.2236267478043573  0.2151376374101358
  0.0027229698746199  0.3292146384867305  0.4008496895559454
  0.1088735017682520  0.5579540451221794  0.2161412599096051
  0.3403595656752380  0.3367735915809417  0.4009442644200291
  0.8843280798088087  0.4392297497389986  0.0338524671417765
  0.8915493346342637  0.4537409936582818  0.3113291620160470
  0.2292881857542655  0.7790909896325413  0.0338665828032525
  0.3216455981288440 -0.0086533156390635  0.3979729243927951
  0.8897850119528485  0.1115560612128508  0.3066525391177527
  0.2200268597356685  0.4453069586618583  0.3069746063676129
  0.5633279237415452  0.4442627276043383  0.3061966195693218
  0.4441326193490343  0.5490909873380826  0.2142972872096126
  0.9971081611520162  0.6629955906507574  0.1261450799144538
  0.5604721589008023  0.7843469474624687  0.3026996012331845
  0.4459845248134147  0.8962998698568192  0.2152389526939653
  0.6658928268736914  0.6763838472341684  0.3961455657805918
  0.3392480335356829  0.0075034513644733  0.1279882375560054
  0.5541184636848583  0.1132733647008462  0.3071840402479021
  0.6592386377116719  0.0021997715937150  0.3968080379692520
  0.8742526702291342  0.1010037293974347  0.0368861397896259
  0.0044590540002603  0.3277269844467887  0.1249781353116504
  0.2152949051749987  0.7742677771757884  0.3098798154453176
  0.1048406325711320  0.8905081144267331  0.2148063591061345
  0.8706321227520374  0.7768293250424209  0.0376417883269793
  0.9001514722384432  0.7801315612598161  0.3082757800381901
  0.9883369464013827  0.9862121832891960  0.3934500045866371
  0.4537140207020585  0.2317406251879133  0.2137471712558088
  0.6693080565627436  0.9967792768757597  0.1250803505985136
  0.3319778970601555  0.3248291946588573  0.1268292715450940
  0.6533622371976769  0.3297534705967952  0.1265793944109125
  0.6458720189781847  0.3036936233621274  0.3933151913547626
  0.7676374647912289  0.5551134832956398  0.2140010254998619
  0.7930120767660016  0.8876103393858811  0.2151314074690410
 
  0.00000000E+00  0.00000000E+00  0.00000000E+00
  0.00000000E+00  0.00000000E+00  0.00000000E+00
  0.00000000E+00  0.00000000E+00  0.00000000E+00
  0.00000000E+00  0.00000000E+00  0.00000000E+00
  0.00000000E+00  0.00000000E+00  0.00000000E+00
  0.00000000E+00  0.00000000E+00  0.00000000E+00
  0.00000000E+00  0.00000000E+00  0.00000000E+00
  0.00000000E+00  0.00000000E+00  0.00000000E+00
  0.00000000E+00  0.00000000E+00  0.00000000E+00
  0.00000000E+00  0.00000000E+00  0.00000000E+00
  0.00000000E+00  0.00000000E+00  0.00000000E+00
  0.00000000E+00  0.00000000E+00  0.00000000E+00
  0.00000000E+00  0.00000000E+00  0.00000000E+00
  0.00000000E+00  0.00000000E+00  0.00000000E+00
  0.00000000E+00  0.00000000E+00  0.00000000E+00
  0.00000000E+00  0.00000000E+00  0.00000000E+00
  0.00000000E+00  0.00000000E+00  0.00000000E+00
  0.00000000E+00  0.00000000E+00  0.00000000E+00
  0.00000000E+00  0.00000000E+00  0.00000000E+00
  0.00000000E+00  0.00000000E+00  0.00000000E+00
  0.00000000E+00  0.00000000E+00  0.00000000E+00
  0.00000000E+00  0.00000000E+00  0.00000000E+00
  0.00000000E+00  0.00000000E+00  0.00000000E+00
  0.00000000E+00  0.00000000E+00  0.00000000E+00
  0.00000000E+00  0.00000000E+00  0.00000000E+00
  0.00000000E+00  0.00000000E+00  0.00000000E+00
  0.00000000E+00  0.00000000E+00  0.00000000E+00
  0.00000000E+00  0.00000000E+00  0.00000000E+00
  0.00000000E+00  0.00000000E+00  0.00000000E+00
  0.00000000E+00  0.00000000E+00  0.00000000E+00
  0.00000000E+00  0.00000000E+00  0.00000000E+00
  0.00000000E+00  0.00000000E+00  0.00000000E+00
  0.00000000E+00  0.00000000E+00  0.00000000E+00
  0.00000000E+00  0.00000000E+00  0.00000000E+00
  0.00000000E+00  0.00000000E+00  0.00000000E+00
  0.00000000E+00  0.00000000E+00  0.00000000E+00
  0.00000000E+00  0.00000000E+00  0.00000000E+00
  0.00000000E+00  0.00000000E+00  0.00000000E+00
  0.00000000E+00  0.00000000E+00  0.00000000E+00
  0.00000000E+00  0.00000000E+00  0.00000000E+00
  0.00000000E+00  0.00000000E+00  0.00000000E+00
  0.00000000E+00  0.00000000E+00  0.00000000E+00
  0.00000000E+00  0.00000000E+00  0.00000000E+00
  0.00000000E+00  0.00000000E+00  0.00000000E+00
