5L_3x3_(1\1\1)                          
   1.00000000000000     
     8.4506998061999994    0.0000000000000000    0.0000000000000000
    -4.2253499030999997    7.3185207118999998    0.0000000000000000
     0.0000000000000000    0.0000000000000000   24.2000007629000002
   Ir   Pd   Pt   Rh   Ru
     8     9     9     9     9
Direct
  0.5556064849970047  0.1067516081665262  0.0388850837619852
  0.5503513855340553  0.1111592602294743  0.3080779025816119
  0.7754633800969074  0.2294263213904623  0.2166438484229095
  0.3235680840255735  0.3313011689100074  0.1267279745916827
  0.8739216491712537  0.4395884847721942  0.3059384148790935
  0.9980094681843699  0.6566354875837200  0.1252520746461766
  0.3470307902618358  0.6717583568476341  0.3912876442821601
  0.8911978412869314  0.7770767490933576  0.3055063634421765
  0.0067052958380449 -0.0008749342863184  0.3961563630753768
  0.2263958809122936  0.1146758420367615  0.0315299998725379
  0.3371424939549508  0.0019929465461042  0.4008783366611948
  0.6625442711092923  0.0025086302716378  0.3984014140021033
  0.2125076518977718  0.4385015149955966  0.3072893734509199
  0.8898201950642466  0.4430741739637817  0.0326108430121769
  0.1090091846125516  0.8850752386604915  0.2154560699077613
  0.4511395056595351  0.8913022562909951  0.2168277116841495
  0.7753505259579482  0.8865268564780826  0.2161301660807389
  0.0035573106663221  0.0063416451915691  0.1259740728798347
  0.8856783581230134  0.1096202434165405  0.3065013823182179
  0.1028432652771092  0.5468597851144709  0.2165814128572792
  0.9983097237808617  0.6455545160338700  0.3951924267973851
  0.3317381671123635  0.6675875342395486  0.1274868706761554
  0.5571899549253806  0.7815185982720073  0.0354165760959075
  0.6640506091255095  0.6618016525391749  0.1282092347124165
  0.6627150245408048  0.6660093047858644  0.3959321680442240
  0.8875600421945354  0.7724079804826239  0.0364309031345193
  0.3382540504313634  0.0057178808071917  0.1260941040118468
  0.4439440458637235  0.2328866583842060  0.2170205199651594
  0.8829101561726737  0.1184362764558696  0.0373693835376838
  0.3503063698016005  0.3382694068885106  0.3936066604444665
  0.5444139645735681  0.4379819553244066  0.0381995213922061
  0.5560685630564578  0.4452292845098730  0.3046431705495027
  0.6687678305852015  0.3288071754702453  0.1270183994135220
  0.2276509690724080  0.7779057442468434  0.0374074272054687
  0.2261351957477202  0.7865835560318100  0.3083263882457601
  0.2229267063453776  0.1056997046954162  0.3057934126735194
  0.1249362476737595  0.2319174533715302  0.2171191438271066
  0.6774449431104513  0.0211485730929720  0.1249595799662412
  0.9964977058476856  0.3233932892770831  0.1261578881546905
  0.2268722633663400  0.4453182113640618  0.0411568093486596
  0.4465387389523524  0.5451584140445743  0.2177144675542993
  0.6585133907195675  0.3402805353823920  0.3917004913497781
  0.7678641876551622  0.5469212566510318  0.2168289926206253
  0.5569593333166228  0.7760440670077863  0.3056242224575857
 
  0.00000000E+00  0.00000000E+00  0.00000000E+00
  0.00000000E+00  0.00000000E+00  0.00000000E+00
  0.00000000E+00  0.00000000E+00  0.00000000E+00
  0.00000000E+00  0.00000000E+00  0.00000000E+00
  0.00000000E+00  0.00000000E+00  0.00000000E+00
  0.00000000E+00  0.00000000E+00  0.00000000E+00
  0.00000000E+00  0.00000000E+00  0.00000000E+00
  0.00000000E+00  0.00000000E+00  0.00000000E+00
  0.00000000E+00  0.00000000E+00  0.00000000E+00
  0.00000000E+00  0.00000000E+00  0.00000000E+00
  0.00000000E+00  0.00000000E+00  0.00000000E+00
  0.00000000E+00  0.00000000E+00  0.00000000E+00
  0.00000000E+00  0.00000000E+00  0.00000000E+00
  0.00000000E+00  0.00000000E+00  0.00000000E+00
  0.00000000E+00  0.00000000E+00  0.00000000E+00
  0.00000000E+00  0.00000000E+00  0.00000000E+00
  0.00000000E+00  0.00000000E+00  0.00000000E+00
  0.00000000E+00  0.00000000E+00  0.00000000E+00
  0.00000000E+00  0.00000000E+00  0.00000000E+00
  0.00000000E+00  0.00000000E+00  0.00000000E+00
  0.00000000E+00  0.00000000E+00  0.00000000E+00
  0.00000000E+00  0.00000000E+00  0.00000000E+00
  0.00000000E+00  0.00000000E+00  0.00000000E+00
  0.00000000E+00  0.00000000E+00  0.00000000E+00
  0.00000000E+00  0.00000000E+00  0.00000000E+00
  0.00000000E+00  0.00000000E+00  0.00000000E+00
  0.00000000E+00  0.00000000E+00  0.00000000E+00
  0.00000000E+00  0.00000000E+00  0.00000000E+00
  0.00000000E+00  0.00000000E+00  0.00000000E+00
  0.00000000E+00  0.00000000E+00  0.00000000E+00
  0.00000000E+00  0.00000000E+00  0.00000000E+00
  0.00000000E+00  0.00000000E+00  0.00000000E+00
  0.00000000E+00  0.00000000E+00  0.00000000E+00
  0.00000000E+00  0.00000000E+00  0.00000000E+00
  0.00000000E+00  0.00000000E+00  0.00000000E+00
  0.00000000E+00  0.00000000E+00  0.00000000E+00
  0.00000000E+00  0.00000000E+00  0.00000000E+00
  0.00000000E+00  0.00000000E+00  0.00000000E+00
  0.00000000E+00  0.00000000E+00  0.00000000E+00
  0.00000000E+00  0.00000000E+00  0.00000000E+00
  0.00000000E+00  0.00000000E+00  0.00000000E+00
  0.00000000E+00  0.00000000E+00  0.00000000E+00
  0.00000000E+00  0.00000000E+00  0.00000000E+00
  0.00000000E+00  0.00000000E+00  0.00000000E+00
