5L_3x3_(1\1\1)                          
   1.00000000000000     
     8.4506998061999994    0.0000000000000000    0.0000000000000000
    -4.2253499030999997    7.3185207118999998    0.0000000000000000
     0.0000000000000000    0.0000000000000000   24.2000007629000002
   Ir   Pd   Pt   Rh   Ru   H 
     9     9     8     9     9     1
Direct
  0.9970564523860062  0.0038385304716746  0.1259784457684145
  0.1093014344437145  0.2114316137276976  0.2154663679076275
  0.5648774846555410  0.1201885056259542  0.0397169881041872
  0.2425882333267191  0.4527627712982106  0.0408293481082509
  0.5498914665191326  0.4397241788331291  0.0391343491710141
  0.3383911138303812  0.6733717819348021  0.1251783628067442
  0.3162831992744816  0.6695761516147350  0.3941314277825307
  0.5552277858097439  0.7770960329888661  0.0384362312010875
  0.6644689373635052  0.6678683223614658  0.1272154381922298
  0.2220938161020398  0.1153370720621506  0.0345911745926299
  0.2231332814107210  0.1043673562433086  0.3107140882364563
  0.7749198458563011  0.2231401518563214  0.2153057950275250
  0.9891947081460979  0.3211506664161028  0.4015327789061978
  0.1157170531167135  0.5607556435472834  0.2151139711221610
  0.3389093631920884  0.3394942348184134  0.4007621298568227
  0.8834980519802368  0.4394098420041805  0.0345930652236662
  0.8955704235699502  0.4479927633232134  0.3045215731685262
  0.2286602463755981  0.7790702960404553  0.0343049056709559
  0.8877466031795026  0.1073415037273827  0.3062759407012690
  0.2196987939532198  0.4387151289672465  0.3076240281953179
  0.5612119544075869  0.4393835945606721  0.3059513601476400
  0.4466680292181292  0.5506303947277976  0.2155176912758328
  0.9975582312220962  0.6653263929842383  0.1264680080220210
  0.5541230638002846  0.7796365161510201  0.3058142139402368
  0.4486553675526140  0.8992461170903067  0.2167075255358280
  0.6724681239363434  0.6626364843401155  0.3993983514298683
  0.3396204754051725  0.0071544167495770  0.1289538509474387
  0.5527314720557500  0.1108812712797317  0.3150154234688806
  0.6595701708673711  0.9820639617746588  0.3971225335437458
  0.8752929934119394  0.1027142236625043  0.0370972403930293
  0.0027652943029595  0.3268136622262268  0.1252413606626918
  0.2277665373324035  0.7913884619339486  0.3114891297605938
  0.1046247392055997  0.8915964638653775  0.2157139972542988
  0.8691519497050777  0.7759338780083581  0.0379775445923977
  0.8967950044362805  0.7785287100767929  0.3064154810405408
  0.9718957728328028  0.9771737434277215  0.3940692943589182
  0.4499230181304316  0.2309971423396684  0.2146200613428416
  0.6689370576401950 -0.0006821375578009  0.1239614777802403
  0.3317891507791942  0.3240867846635226  0.1279034909806282
  0.6510911704980339  0.3286240163462330  0.1271173641111716
  0.6792463735926013  0.3488574322621613  0.3939003603682577
  0.7662834787776615  0.5549997987470653  0.2134658383791634
  0.0016888542083854  0.6641134755367292  0.3924123205955654
  0.7897957716444324  0.8888819982081091  0.2146952197262098
  0.4860822859407988  0.2710119042838623  0.4354192795057655
 
  0.00000000E+00  0.00000000E+00  0.00000000E+00
  0.00000000E+00  0.00000000E+00  0.00000000E+00
  0.00000000E+00  0.00000000E+00  0.00000000E+00
  0.00000000E+00  0.00000000E+00  0.00000000E+00
  0.00000000E+00  0.00000000E+00  0.00000000E+00
  0.00000000E+00  0.00000000E+00  0.00000000E+00
  0.00000000E+00  0.00000000E+00  0.00000000E+00
  0.00000000E+00  0.00000000E+00  0.00000000E+00
  0.00000000E+00  0.00000000E+00  0.00000000E+00
  0.00000000E+00  0.00000000E+00  0.00000000E+00
  0.00000000E+00  0.00000000E+00  0.00000000E+00
  0.00000000E+00  0.00000000E+00  0.00000000E+00
  0.00000000E+00  0.00000000E+00  0.00000000E+00
  0.00000000E+00  0.00000000E+00  0.00000000E+00
  0.00000000E+00  0.00000000E+00  0.00000000E+00
  0.00000000E+00  0.00000000E+00  0.00000000E+00
  0.00000000E+00  0.00000000E+00  0.00000000E+00
  0.00000000E+00  0.00000000E+00  0.00000000E+00
  0.00000000E+00  0.00000000E+00  0.00000000E+00
  0.00000000E+00  0.00000000E+00  0.00000000E+00
  0.00000000E+00  0.00000000E+00  0.00000000E+00
  0.00000000E+00  0.00000000E+00  0.00000000E+00
  0.00000000E+00  0.00000000E+00  0.00000000E+00
  0.00000000E+00  0.00000000E+00  0.00000000E+00
  0.00000000E+00  0.00000000E+00  0.00000000E+00
  0.00000000E+00  0.00000000E+00  0.00000000E+00
  0.00000000E+00  0.00000000E+00  0.00000000E+00
  0.00000000E+00  0.00000000E+00  0.00000000E+00
  0.00000000E+00  0.00000000E+00  0.00000000E+00
  0.00000000E+00  0.00000000E+00  0.00000000E+00
  0.00000000E+00  0.00000000E+00  0.00000000E+00
  0.00000000E+00  0.00000000E+00  0.00000000E+00
  0.00000000E+00  0.00000000E+00  0.00000000E+00
  0.00000000E+00  0.00000000E+00  0.00000000E+00
  0.00000000E+00  0.00000000E+00  0.00000000E+00
  0.00000000E+00  0.00000000E+00  0.00000000E+00
  0.00000000E+00  0.00000000E+00  0.00000000E+00
  0.00000000E+00  0.00000000E+00  0.00000000E+00
  0.00000000E+00  0.00000000E+00  0.00000000E+00
  0.00000000E+00  0.00000000E+00  0.00000000E+00
  0.00000000E+00  0.00000000E+00  0.00000000E+00
  0.00000000E+00  0.00000000E+00  0.00000000E+00
  0.00000000E+00  0.00000000E+00  0.00000000E+00
  0.00000000E+00  0.00000000E+00  0.00000000E+00
  0.00000000E+00  0.00000000E+00  0.00000000E+00
