Amorphous+H                             
   1.00000000000000     
     8.4506998061999994    0.0000000000000000    0.0000000000000000
    -4.2253499030999997    7.3185207118999998    0.0000000000000000
     0.0000000000000000    0.0000000000000000   24.2000007629000002
   Ir   Pd   Pt   Rh   Ru   H 
     9     9     9     9     9     1
Direct
  0.6990632849546780  0.6409843336748953  0.0328436061621436
  0.9096804449926975  0.1122555514424019  0.3314065012660856
  0.4796310565072149  0.5680111230330324  0.4080128087566894
  0.5815865748573574  0.7938304874653992  0.3272196348825958
  0.0277169865617646  0.3413070662681078  0.2368903031452641
  0.2106658269737706  0.1631966327506209  0.2703068918482945
  0.4111700784467067  0.5972008987908218  0.0933002754566651
  0.2814628303444813  0.7412711688327382  0.3833248289462645
  0.0571808473916505  0.6336452758283025  0.2989465778323485
  0.8945597331791562  0.4630135642307223  0.0457781327259153
  0.7214709199583939  0.2988557975908133  0.2969448563194418
  0.8722880084790654  0.8143003058618725  0.2701825756830822
  0.7541831580410968  0.9359844368045928  0.0888320524638188
  0.7929889012462428  0.2326934042463901  0.1446750017560269
  0.3503057943167765  0.6649590194222587  0.2369903378115797
  0.6889557426702999  0.0067184668696787  0.2365614219434665
  0.5672756338264865  0.1165498975135471  0.0464221092002394
  0.1683350447611637  0.8570508874704517  0.2077979204297503
  0.8341633139118331  0.5185140471082712  0.2073667149156952
  0.6470584141163582  0.7003842121791045  0.1786157343458454
  0.2285956328113682  0.4345963727977200  0.3315302336649246
  0.8938203408597266  0.1691717129610212  0.0003885517337862
  0.2297100821209604  0.7863418827643731  0.0540663908485473
  0.4599083996601238  0.8998403095879869  0.1464823523909762
  0.9904476299564628  0.0430139033514839  0.1777072305706253
  0.3869871463391940  0.3150556231182886  0.0290981533168628
  0.0500218843598280  0.9702525624583364  0.0300163966784140
  0.6088215676576875  0.4135904264800881  0.1186149255163932
  0.0987610501749301  0.2721915896201565  0.0901446426136541
  0.4273491887547511  0.2645934267167829  0.3579795984070916
  0.5321291704550676  0.4806473643938643  0.2693327091402115
  0.1201472789932829  0.5579963795586798  0.1448685952727094
  0.2845406058913509  0.0833674073212495  0.1176143258484671
  0.3892180206067787  0.9749931430174881  0.2980577522256657
  0.9405274154473824  0.4172064935594018  0.3854967729610135
  0.6131881982719003  0.0688514835052860  0.3840466576757046
  0.3096982243059160  0.3594469937441195  0.1771290002866007
  0.2181618213867060  0.4974174628647055  0.0053749551773963
  0.8117925496800527  0.8724352904205747  0.4077389126322373
  0.7529988403380602  0.5788369915530716  0.3624117957036386
 -0.0106770730580346  0.7118133253788946  0.4335556313125208
  0.9341577372784023  0.7336015754592411  0.1144967452039626
  0.5171791019381267  0.7780960220392381  0.0016087700437839
  0.4843992635309880  0.1901793969156606  0.2072642936592175
  0.1037238873023603  0.9240923075448875  0.3576175833017164
  0.8926393303994403  0.8256139604833603  0.4726086589226641
 
  0.00000000E+00  0.00000000E+00  0.00000000E+00
  0.00000000E+00  0.00000000E+00  0.00000000E+00
  0.00000000E+00  0.00000000E+00  0.00000000E+00
  0.00000000E+00  0.00000000E+00  0.00000000E+00
  0.00000000E+00  0.00000000E+00  0.00000000E+00
  0.00000000E+00  0.00000000E+00  0.00000000E+00
  0.00000000E+00  0.00000000E+00  0.00000000E+00
  0.00000000E+00  0.00000000E+00  0.00000000E+00
  0.00000000E+00  0.00000000E+00  0.00000000E+00
  0.00000000E+00  0.00000000E+00  0.00000000E+00
  0.00000000E+00  0.00000000E+00  0.00000000E+00
  0.00000000E+00  0.00000000E+00  0.00000000E+00
  0.00000000E+00  0.00000000E+00  0.00000000E+00
  0.00000000E+00  0.00000000E+00  0.00000000E+00
  0.00000000E+00  0.00000000E+00  0.00000000E+00
  0.00000000E+00  0.00000000E+00  0.00000000E+00
  0.00000000E+00  0.00000000E+00  0.00000000E+00
  0.00000000E+00  0.00000000E+00  0.00000000E+00
  0.00000000E+00  0.00000000E+00  0.00000000E+00
  0.00000000E+00  0.00000000E+00  0.00000000E+00
  0.00000000E+00  0.00000000E+00  0.00000000E+00
  0.00000000E+00  0.00000000E+00  0.00000000E+00
  0.00000000E+00  0.00000000E+00  0.00000000E+00
  0.00000000E+00  0.00000000E+00  0.00000000E+00
  0.00000000E+00  0.00000000E+00  0.00000000E+00
  0.00000000E+00  0.00000000E+00  0.00000000E+00
  0.00000000E+00  0.00000000E+00  0.00000000E+00
  0.00000000E+00  0.00000000E+00  0.00000000E+00
  0.00000000E+00  0.00000000E+00  0.00000000E+00
  0.00000000E+00  0.00000000E+00  0.00000000E+00
  0.00000000E+00  0.00000000E+00  0.00000000E+00
  0.00000000E+00  0.00000000E+00  0.00000000E+00
  0.00000000E+00  0.00000000E+00  0.00000000E+00
  0.00000000E+00  0.00000000E+00  0.00000000E+00
  0.00000000E+00  0.00000000E+00  0.00000000E+00
  0.00000000E+00  0.00000000E+00  0.00000000E+00
  0.00000000E+00  0.00000000E+00  0.00000000E+00
  0.00000000E+00  0.00000000E+00  0.00000000E+00
  0.00000000E+00  0.00000000E+00  0.00000000E+00
  0.00000000E+00  0.00000000E+00  0.00000000E+00
  0.00000000E+00  0.00000000E+00  0.00000000E+00
  0.00000000E+00  0.00000000E+00  0.00000000E+00
  0.00000000E+00  0.00000000E+00  0.00000000E+00
  0.00000000E+00  0.00000000E+00  0.00000000E+00
  0.00000000E+00  0.00000000E+00  0.00000000E+00
  0.00000000E+00  0.00000000E+00  0.00000000E+00
