5L_3x3_(1\1\1)                          
   1.00000000000000     
     8.4506998061999994    0.0000000000000000    0.0000000000000000
    -4.2253499030999997    7.3185207118999998    0.0000000000000000
     0.0000000000000000    0.0000000000000000   24.2000007629000002
   Ir   Pd   Pt   Rh   Ru   H 
     9     8     9     9     9     1
Direct
  0.5569763636105496  0.1081583580082988  0.0394892206936393
  0.5394097633212153  0.1046427972432818  0.3125107387750133
  0.7786596616975765  0.2316988571810466  0.2168929982708131
  0.0034647958342811  0.3445924349552583  0.3930707768287042
  0.3257148421716903  0.3303488589607485  0.1266961238911063
  0.8782451713170542  0.4461616651692106  0.3057125082238015
  0.9980071870196949  0.6585556423500913  0.1258771943019449
  0.3287689923005691  0.6471224939841846  0.3920088090592696
  0.8895724395845938  0.7784974785901646  0.3064475032237359
  0.0008959129323400  0.0055048760046607  0.3975142534663847
  0.2266470421082360  0.1149577836302254  0.0322153219957861
  0.6488377213800665  0.9929738865526537  0.4000021021578976
  0.2243103314354727  0.4424827712945950  0.3027428363605676
  0.8908923526021636  0.4436107491286280  0.0331797325886858
  0.1080676431716548  0.8850107367389892  0.2166667051826670
  0.4508847922763730  0.8911170575259989  0.2175218139599983
  0.7740622809048990  0.8871458758678296  0.2167336194091851
  0.0027177170828580  0.0037662587925163  0.1262943053943555
  0.8831867398325135  0.1059329756013964  0.3064160551869078
  0.1055559145641842  0.5496147442304923  0.2162057943558292
  0.0031340157017414  0.6612465331291600  0.3974845864351194
  0.3349362939015270  0.6682998239948182  0.1277787862204331
  0.5573963957075894  0.7834914610075427  0.0353690662099203
  0.6659644345773921  0.6635864343247678  0.1279473536071618
  0.6491817830941583  0.6523772296867212  0.3973450179591698
  0.8883298309942477  0.7728881319122137  0.0358930156448385
  0.3373249725393114  0.0039266051539457  0.1265699159769605
  0.4452031990201575  0.2299875246262012  0.2177502936093299
  0.8844375104916035  0.1196428677153425  0.0383228107447212
  0.3251409281904530  0.3321468360345087  0.3929811883432816
  0.5447670697194362  0.4379940500274027  0.0380268545514130
  0.5572238518364436  0.4365122819117596  0.3062307769335831
  0.6675926031330853  0.3289209858937427  0.1273228203853779
  0.2267670143547583  0.7759627094613868  0.0378863397540380
  0.2310387401364086  0.7972487122606591  0.3118850069732521
  0.2250780227031983  0.1017612471389479  0.3086107556958881
  0.1243845945220979  0.2299775169849588  0.2163698021751126
  0.6771967860441628  0.0212206293117557  0.1256506081677876
  0.9971236533786202  0.3230154613477369  0.1273612225648568
  0.2259929317071909  0.4450988125531778  0.0417613495250858
  0.4484102554761230  0.5423105150907355  0.2172283607604261
  0.6831377228597898  0.3331834213990187  0.3924435484872268
  0.7689107046344834  0.5465702522039877  0.2168598821447144
  0.5557865230489103  0.7789043447441580  0.3076153606532521
  0.7926517988817547  0.5800289496764767  0.4362407946759829
 
  0.00000000E+00  0.00000000E+00  0.00000000E+00
  0.00000000E+00  0.00000000E+00  0.00000000E+00
  0.00000000E+00  0.00000000E+00  0.00000000E+00
  0.00000000E+00  0.00000000E+00  0.00000000E+00
  0.00000000E+00  0.00000000E+00  0.00000000E+00
  0.00000000E+00  0.00000000E+00  0.00000000E+00
  0.00000000E+00  0.00000000E+00  0.00000000E+00
  0.00000000E+00  0.00000000E+00  0.00000000E+00
  0.00000000E+00  0.00000000E+00  0.00000000E+00
  0.00000000E+00  0.00000000E+00  0.00000000E+00
  0.00000000E+00  0.00000000E+00  0.00000000E+00
  0.00000000E+00  0.00000000E+00  0.00000000E+00
  0.00000000E+00  0.00000000E+00  0.00000000E+00
  0.00000000E+00  0.00000000E+00  0.00000000E+00
  0.00000000E+00  0.00000000E+00  0.00000000E+00
  0.00000000E+00  0.00000000E+00  0.00000000E+00
  0.00000000E+00  0.00000000E+00  0.00000000E+00
  0.00000000E+00  0.00000000E+00  0.00000000E+00
  0.00000000E+00  0.00000000E+00  0.00000000E+00
  0.00000000E+00  0.00000000E+00  0.00000000E+00
  0.00000000E+00  0.00000000E+00  0.00000000E+00
  0.00000000E+00  0.00000000E+00  0.00000000E+00
  0.00000000E+00  0.00000000E+00  0.00000000E+00
  0.00000000E+00  0.00000000E+00  0.00000000E+00
  0.00000000E+00  0.00000000E+00  0.00000000E+00
  0.00000000E+00  0.00000000E+00  0.00000000E+00
  0.00000000E+00  0.00000000E+00  0.00000000E+00
  0.00000000E+00  0.00000000E+00  0.00000000E+00
  0.00000000E+00  0.00000000E+00  0.00000000E+00
  0.00000000E+00  0.00000000E+00  0.00000000E+00
  0.00000000E+00  0.00000000E+00  0.00000000E+00
  0.00000000E+00  0.00000000E+00  0.00000000E+00
  0.00000000E+00  0.00000000E+00  0.00000000E+00
  0.00000000E+00  0.00000000E+00  0.00000000E+00
  0.00000000E+00  0.00000000E+00  0.00000000E+00
  0.00000000E+00  0.00000000E+00  0.00000000E+00
  0.00000000E+00  0.00000000E+00  0.00000000E+00
  0.00000000E+00  0.00000000E+00  0.00000000E+00
  0.00000000E+00  0.00000000E+00  0.00000000E+00
  0.00000000E+00  0.00000000E+00  0.00000000E+00
  0.00000000E+00  0.00000000E+00  0.00000000E+00
  0.00000000E+00  0.00000000E+00  0.00000000E+00
  0.00000000E+00  0.00000000E+00  0.00000000E+00
  0.00000000E+00  0.00000000E+00  0.00000000E+00
  0.00000000E+00  0.00000000E+00  0.00000000E+00
