5L_3x3_(1\1\1)                          
   1.00000000000000     
     8.4506998061999994    0.0000000000000000    0.0000000000000000
    -4.2253499030999997    7.3185207118999998    0.0000000000000000
     0.0000000000000000    0.0000000000000000   24.2000007629000002
   Ir   Pd   Pt   Rh   Ru
     9     9     8     9     9
Direct
  0.9966931737437782  0.0039961899723931  0.1253263129687077
  0.1101689650261035  0.2114465432689162  0.2148917977737834
  0.5648741419219190  0.1205383023335274  0.0390807411335883
  0.2432872847412926  0.4534915360609505  0.0404451051637096
  0.5504153081335867  0.4401542715843695  0.0385460993285379
  0.3383577001177908  0.6742684609442716  0.1246834886526716
  0.3205868342678228  0.6681713788457054  0.3935016360937414
  0.5560527955741564  0.7779142922460959  0.0378443494429624
  0.6647076253388000  0.6684271606606887  0.1265287346783897
  0.2225610510759645  0.1157567631197972  0.0339390342438884
  0.2253467591098383  0.1043527294451388  0.3102556498288102
  0.7754337870485362  0.2228397264710859  0.2150090454981357
  0.9927853209415041  0.3221343445774648  0.4013023141875501
  0.1132119843328504  0.5612255920207955  0.2150445839139036
  0.3378441728052838  0.3398862742578565  0.3989465594065886
  0.8836563811000029  0.4397821671272353  0.0339235071596941
  0.8948341461724103  0.4477168266418667  0.3046153644139555
  0.2290326948650653  0.7795170111280186  0.0336914769746854
  0.8894042248920283  0.1072341087634554  0.3058170217273760
  0.2192639877412764  0.4393397514495879  0.3060274028860370
  0.5601671026156283  0.4405886029681980  0.3053797411887531
  0.4467282728505597  0.5513242491135248  0.2144951783975807
  0.9977344958819021  0.6653645517378692  0.1258120260201666
  0.5540907153289588  0.7805943167919980  0.3048936027494216
  0.4483436882763800  0.8998831068775478  0.2162566976628547
  0.6695512284166188  0.6606177294161103  0.3992315085513209
  0.3397434598437429  0.0076167399777465  0.1284502622721806
  0.5544806738359283  0.1128432623190829  0.3149508790175980
  0.6646172616497116  0.9823539987218959  0.3962655283624874
  0.8759527376058905  0.1033027465810584  0.0365552079038367
  0.0031899866207257  0.3274386452034820  0.1247904616485947
  0.2294155789331620  0.7915889030510356  0.3115719965495748
  0.1043892209097379  0.8921436700671443  0.2147810516920722
  0.8693092701766227  0.7760968573838286  0.0372876720560142
  0.8965235644994978  0.7794858755840042  0.3053971612591732
  0.9739333675305618  0.9749357884180826  0.3928407036831056
  0.4510671775277513  0.2322584561659713  0.2141209951806879
  0.6686864928617229  0.0000465627266828  0.1233700979261169
  0.3319921824230034  0.3236524041447380  0.1272164086050492
  0.6515088578827590  0.3283238173724331  0.1264566438183384
  0.6895974931814738  0.3578776723535391  0.3927364260248991
  0.7662689238841426  0.5550227321784865  0.2128529368856018
  0.0015432100317762  0.6685496661564196  0.3920155941409367
  0.7895312966775705  0.8886174893210900  0.2140958248343381
 
  0.00000000E+00  0.00000000E+00  0.00000000E+00
  0.00000000E+00  0.00000000E+00  0.00000000E+00
  0.00000000E+00  0.00000000E+00  0.00000000E+00
  0.00000000E+00  0.00000000E+00  0.00000000E+00
  0.00000000E+00  0.00000000E+00  0.00000000E+00
  0.00000000E+00  0.00000000E+00  0.00000000E+00
  0.00000000E+00  0.00000000E+00  0.00000000E+00
  0.00000000E+00  0.00000000E+00  0.00000000E+00
  0.00000000E+00  0.00000000E+00  0.00000000E+00
  0.00000000E+00  0.00000000E+00  0.00000000E+00
  0.00000000E+00  0.00000000E+00  0.00000000E+00
  0.00000000E+00  0.00000000E+00  0.00000000E+00
  0.00000000E+00  0.00000000E+00  0.00000000E+00
  0.00000000E+00  0.00000000E+00  0.00000000E+00
  0.00000000E+00  0.00000000E+00  0.00000000E+00
  0.00000000E+00  0.00000000E+00  0.00000000E+00
  0.00000000E+00  0.00000000E+00  0.00000000E+00
  0.00000000E+00  0.00000000E+00  0.00000000E+00
  0.00000000E+00  0.00000000E+00  0.00000000E+00
  0.00000000E+00  0.00000000E+00  0.00000000E+00
  0.00000000E+00  0.00000000E+00  0.00000000E+00
  0.00000000E+00  0.00000000E+00  0.00000000E+00
  0.00000000E+00  0.00000000E+00  0.00000000E+00
  0.00000000E+00  0.00000000E+00  0.00000000E+00
  0.00000000E+00  0.00000000E+00  0.00000000E+00
  0.00000000E+00  0.00000000E+00  0.00000000E+00
  0.00000000E+00  0.00000000E+00  0.00000000E+00
  0.00000000E+00  0.00000000E+00  0.00000000E+00
  0.00000000E+00  0.00000000E+00  0.00000000E+00
  0.00000000E+00  0.00000000E+00  0.00000000E+00
  0.00000000E+00  0.00000000E+00  0.00000000E+00
  0.00000000E+00  0.00000000E+00  0.00000000E+00
  0.00000000E+00  0.00000000E+00  0.00000000E+00
  0.00000000E+00  0.00000000E+00  0.00000000E+00
  0.00000000E+00  0.00000000E+00  0.00000000E+00
  0.00000000E+00  0.00000000E+00  0.00000000E+00
  0.00000000E+00  0.00000000E+00  0.00000000E+00
  0.00000000E+00  0.00000000E+00  0.00000000E+00
  0.00000000E+00  0.00000000E+00  0.00000000E+00
  0.00000000E+00  0.00000000E+00  0.00000000E+00
  0.00000000E+00  0.00000000E+00  0.00000000E+00
  0.00000000E+00  0.00000000E+00  0.00000000E+00
  0.00000000E+00  0.00000000E+00  0.00000000E+00
  0.00000000E+00  0.00000000E+00  0.00000000E+00
