step                                    
   1.00000000000000     
     8.4506998061999994    0.0000000000000000    0.0000000000000000
    -4.2253499030999997    7.3185207118999998    0.0000000000000000
     0.0000000000000000    0.0000000000000000   24.2000007629000002
   Ir   Pd   Pt   Rh   Ru   H 
    10     9    10    10     9     1
Direct
  0.9927330690850097 -0.0006992015400802  0.1262242578235351
  0.1111670633497353  0.2064459771545543  0.2151055133662717
  0.5630161559435745  0.1162365833948864  0.0396187363625849
  0.2421777106577458  0.4493157606617120  0.0404106906604128
  0.5486726959826641  0.4349378240548423  0.0394830559985104
  0.3348905104103249  0.6674731710375923  0.1249672097748727
  0.3173277604905917  0.6695597604580933  0.3947443857112526
  0.5541016598737488  0.7723061505382852  0.0388030620782122
  0.6656033626038520  0.6650772505977308  0.1275500322371626
  0.8196134706268077  0.9137477359540460  0.4699054567120651
  0.2197476988994246  0.1113482336153038  0.0345436119134681
  0.2230150748845313  0.1057670584198216  0.3048960050603702
  0.7747902337736046  0.2172094278823389  0.2161909541735176
  0.0067710757315521  0.3395393715109679  0.4028289656696858
  0.1091096769819815  0.5529590476685057  0.2158394061934369
  0.3215456846581479  0.3123036740142703  0.4011747335475517
  0.8822630265200382  0.4355562260229964  0.0341519206690879
  0.8865018472329731  0.4421142203043587  0.3081619772925623
  0.2268039520248765  0.7742244215262952  0.0344183515779459
  0.3209747654899656 -0.0096531035676973  0.4001249058820311
  0.8867694893549757  0.1000492995338138  0.3108941475446219
  0.2161952784377769  0.4376761648255929  0.3076147476649002
  0.5588851419433107  0.4349200715481102  0.3069193536612134
  0.4421266788915155  0.5446960858505900  0.2145523386289779
  0.9950184884630547  0.6592083099369411  0.1267859015505405
  0.5527893667340167  0.7779620534202548  0.3064579815288251
  0.4496173281743930  0.8918114683619969  0.2154341074693905
  0.6286787328629169  0.6446901941469718  0.3981910640325812
  0.7978936116291461  0.5910213757047491  0.4810692986431862
  0.3374404492155091  0.0025649519547005  0.1286053961443210
  0.5552452958773761  0.1106880986391024  0.3094421242862672
  0.6321387790571235  0.9861923791258433  0.4001313578208267
  0.8717137075532881  0.0974285203704084  0.0365729783985544
  0.0004748841653694  0.3220281961219436  0.1253931010045885
  0.2129756163108957  0.7735150220534351  0.3070508709072899
  0.1041655481036377  0.8867926292264061  0.2153072973026637
  0.8688126182289724  0.7719308648967129  0.0380874362108038
  0.8918789335363757  0.7767153507304145  0.3083728466828030
  0.7799331141814244  0.1896977190978711  0.4821639748547499
  0.0130833384427053  0.9815224160354321  0.3964998940264438
  0.4530785908375573  0.2289842884164595  0.2137503107189067
  0.6690195616805463 -0.0044383542214269  0.1238204168251013
  0.3278764672116858  0.3171732880497220  0.1273675005487701
  0.6527024578305445  0.3246540629790589  0.1271078523351324
  0.6669240419244710  0.3257993987631929  0.4005390955791662
  0.7635060456085607  0.5490358124838209  0.2141987577159316
  0.0047934448414346  0.6656697409008617  0.3965371261421391
  0.7874077819483175  0.8809412224149775  0.2160387774446960
  0.6693684977319363  0.3394593889232166  0.4779907146220679
 
  0.00000000E+00  0.00000000E+00  0.00000000E+00
  0.00000000E+00  0.00000000E+00  0.00000000E+00
  0.00000000E+00  0.00000000E+00  0.00000000E+00
  0.00000000E+00  0.00000000E+00  0.00000000E+00
  0.00000000E+00  0.00000000E+00  0.00000000E+00
  0.00000000E+00  0.00000000E+00  0.00000000E+00
  0.00000000E+00  0.00000000E+00  0.00000000E+00
  0.00000000E+00  0.00000000E+00  0.00000000E+00
  0.00000000E+00  0.00000000E+00  0.00000000E+00
  0.00000000E+00  0.00000000E+00  0.00000000E+00
  0.00000000E+00  0.00000000E+00  0.00000000E+00
  0.00000000E+00  0.00000000E+00  0.00000000E+00
  0.00000000E+00  0.00000000E+00  0.00000000E+00
  0.00000000E+00  0.00000000E+00  0.00000000E+00
  0.00000000E+00  0.00000000E+00  0.00000000E+00
  0.00000000E+00  0.00000000E+00  0.00000000E+00
  0.00000000E+00  0.00000000E+00  0.00000000E+00
  0.00000000E+00  0.00000000E+00  0.00000000E+00
  0.00000000E+00  0.00000000E+00  0.00000000E+00
  0.00000000E+00  0.00000000E+00  0.00000000E+00
  0.00000000E+00  0.00000000E+00  0.00000000E+00
  0.00000000E+00  0.00000000E+00  0.00000000E+00
  0.00000000E+00  0.00000000E+00  0.00000000E+00
  0.00000000E+00  0.00000000E+00  0.00000000E+00
  0.00000000E+00  0.00000000E+00  0.00000000E+00
  0.00000000E+00  0.00000000E+00  0.00000000E+00
  0.00000000E+00  0.00000000E+00  0.00000000E+00
  0.00000000E+00  0.00000000E+00  0.00000000E+00
  0.00000000E+00  0.00000000E+00  0.00000000E+00
  0.00000000E+00  0.00000000E+00  0.00000000E+00
  0.00000000E+00  0.00000000E+00  0.00000000E+00
  0.00000000E+00  0.00000000E+00  0.00000000E+00
  0.00000000E+00  0.00000000E+00  0.00000000E+00
  0.00000000E+00  0.00000000E+00  0.00000000E+00
  0.00000000E+00  0.00000000E+00  0.00000000E+00
  0.00000000E+00  0.00000000E+00  0.00000000E+00
  0.00000000E+00  0.00000000E+00  0.00000000E+00
  0.00000000E+00  0.00000000E+00  0.00000000E+00
  0.00000000E+00  0.00000000E+00  0.00000000E+00
  0.00000000E+00  0.00000000E+00  0.00000000E+00
  0.00000000E+00  0.00000000E+00  0.00000000E+00
  0.00000000E+00  0.00000000E+00  0.00000000E+00
  0.00000000E+00  0.00000000E+00  0.00000000E+00
  0.00000000E+00  0.00000000E+00  0.00000000E+00
  0.00000000E+00  0.00000000E+00  0.00000000E+00
  0.00000000E+00  0.00000000E+00  0.00000000E+00
  0.00000000E+00  0.00000000E+00  0.00000000E+00
  0.00000000E+00  0.00000000E+00  0.00000000E+00
  0.00000000E+00  0.00000000E+00  0.00000000E+00
