5L_3x3_(1\1\1)                          
   1.00000000000000     
     8.4506998061999994    0.0000000000000000    0.0000000000000000
    -4.2253499030999997    7.3185207118999998    0.0000000000000000
     0.0000000000000000    0.0000000000000000   24.2000007629000002
   Ir   Pd   Pt   Rh   Ru   H 
     9     9     9     8     9     1
Direct
  0.9947796653627718  0.0037126593612617  0.1261785378718134
  0.1132085313151102  0.2112993214908597  0.2151998519350028
  0.5648011409789571  0.1199227692085743  0.0396279056541308
  0.2448691601579055  0.4541937334393712  0.0407983742141370
  0.5502596190924590  0.4390176630047436  0.0396931173392616
  0.3373599342101237  0.6733882753063828  0.1250639817194908
  0.3100068594454928  0.6565458119577821  0.3940722106667578
  0.5552285574132335  0.7787011764587211  0.0387254484666058
  0.6655879318046707  0.6691561959122059  0.1274018406808274
  0.2216108622696630  0.1167069408897765  0.0352319721803634
  0.2255110674968984  0.1096985444463141  0.3057282851198335
  0.7773646358468851  0.2208079216134395  0.2162786462919280
  0.9923616584888297  0.3332484715652498  0.4012077736351895
  0.1110897889507173  0.5594212945259883  0.2153273399948374
  0.3284987699327975  0.3329468807111289  0.4005151500673647
  0.8838454768538055  0.4395083870546631  0.0340826279766026
  0.8882499600157927  0.4454712085689356  0.3075429293838248
  0.2287040433589193  0.7792221458529797  0.0341117573311341
  0.3370804856678536 -0.0019486035041265  0.3980713022110114
  0.8843364406512412  0.1009054164139023  0.3116804807291554
  0.2148713957231951  0.4386492869738491  0.3058460310500080
  0.5587808970766692  0.4430337656781385  0.3055598829459714
  0.4464724321689669  0.5523910724410082  0.2149995593685924
  0.9967837870554422  0.6643506156950872  0.1262002912572327
  0.5568749485638860  0.7875415473394436  0.3105725698741728
  0.4504550767802132  0.8961262975583866  0.2165066099678557
  0.6668197464223544  0.6670871637926313  0.3981638496780729
  0.3415696278918782  0.0074065862087305  0.1289207687501620
  0.5638501784738817  0.1119623168210956  0.3122631775614396
  0.8757800048845267  0.1022828761799793  0.0370914012942769
  0.0030089884010159  0.3275221558834896  0.1253070457055331
  0.2225269316712995  0.7798778117481240  0.3075527153252790
  0.1054371987626365  0.8913175101477518  0.2147554378950240
  0.8695822268745188  0.7766093085542216  0.0379602551387017
  0.8925762923671812  0.7791879117930061  0.3061132317957429
  0.0098174586894960  0.9772800776771321  0.3940611991153304
  0.4556936961039423  0.2325787365437016  0.2145259380947923
  0.6705180538926264  0.0003705280742858  0.1245057883025364
  0.3326984541610144  0.3232982436751912  0.1286828296406432
  0.6547438002736092  0.3284118420253049  0.1269113563547484
  0.6576079008321472  0.3343898435622270  0.3940118763175846
  0.7668799742174606  0.5550112022994154  0.2138055468023004
  0.0105301889730921  0.6786568061039616  0.3949762136974059
  0.7895252868046910  0.8864263455894142  0.2153682266083456
  0.7797527415734625  0.5696990603272021  0.4359571169671064
 
  0.00000000E+00  0.00000000E+00  0.00000000E+00
  0.00000000E+00  0.00000000E+00  0.00000000E+00
  0.00000000E+00  0.00000000E+00  0.00000000E+00
  0.00000000E+00  0.00000000E+00  0.00000000E+00
  0.00000000E+00  0.00000000E+00  0.00000000E+00
  0.00000000E+00  0.00000000E+00  0.00000000E+00
  0.00000000E+00  0.00000000E+00  0.00000000E+00
  0.00000000E+00  0.00000000E+00  0.00000000E+00
  0.00000000E+00  0.00000000E+00  0.00000000E+00
  0.00000000E+00  0.00000000E+00  0.00000000E+00
  0.00000000E+00  0.00000000E+00  0.00000000E+00
  0.00000000E+00  0.00000000E+00  0.00000000E+00
  0.00000000E+00  0.00000000E+00  0.00000000E+00
  0.00000000E+00  0.00000000E+00  0.00000000E+00
  0.00000000E+00  0.00000000E+00  0.00000000E+00
  0.00000000E+00  0.00000000E+00  0.00000000E+00
  0.00000000E+00  0.00000000E+00  0.00000000E+00
  0.00000000E+00  0.00000000E+00  0.00000000E+00
  0.00000000E+00  0.00000000E+00  0.00000000E+00
  0.00000000E+00  0.00000000E+00  0.00000000E+00
  0.00000000E+00  0.00000000E+00  0.00000000E+00
  0.00000000E+00  0.00000000E+00  0.00000000E+00
  0.00000000E+00  0.00000000E+00  0.00000000E+00
  0.00000000E+00  0.00000000E+00  0.00000000E+00
  0.00000000E+00  0.00000000E+00  0.00000000E+00
  0.00000000E+00  0.00000000E+00  0.00000000E+00
  0.00000000E+00  0.00000000E+00  0.00000000E+00
  0.00000000E+00  0.00000000E+00  0.00000000E+00
  0.00000000E+00  0.00000000E+00  0.00000000E+00
  0.00000000E+00  0.00000000E+00  0.00000000E+00
  0.00000000E+00  0.00000000E+00  0.00000000E+00
  0.00000000E+00  0.00000000E+00  0.00000000E+00
  0.00000000E+00  0.00000000E+00  0.00000000E+00
  0.00000000E+00  0.00000000E+00  0.00000000E+00
  0.00000000E+00  0.00000000E+00  0.00000000E+00
  0.00000000E+00  0.00000000E+00  0.00000000E+00
  0.00000000E+00  0.00000000E+00  0.00000000E+00
  0.00000000E+00  0.00000000E+00  0.00000000E+00
  0.00000000E+00  0.00000000E+00  0.00000000E+00
  0.00000000E+00  0.00000000E+00  0.00000000E+00
  0.00000000E+00  0.00000000E+00  0.00000000E+00
  0.00000000E+00  0.00000000E+00  0.00000000E+00
  0.00000000E+00  0.00000000E+00  0.00000000E+00
  0.00000000E+00  0.00000000E+00  0.00000000E+00
  0.00000000E+00  0.00000000E+00  0.00000000E+00
