total                                   
   1.00000000000000     
     8.4506998061999994    0.0000000000000000    0.0000000000000000
    -4.2253499030999997    7.3185207118999998    0.0000000000000000
     0.0000000000000000    0.0000000000000000   24.2000007629000002
   Ir   Pd   Pt   Rh   Ru   H 
     9     9     9     9     9     1
Direct
  0.9801986864468674  0.0030805459151047  0.0061328140078796
  0.4721150228845178  0.0061581025447559  0.0078203272087024
  0.0658966039583158  0.1911713000513342  0.3191505272158021
  0.6059052713586218  0.7593935190251737  0.2893369645840960
  0.4249043717107587  0.3973247586226247  0.3265194846483535
  0.8359565454211321  0.6781765197214480  0.0428317677653250
  0.2467336682112650  0.0460056651882211  0.3605520744244523
  0.4659317747787123  0.4735037536175019  0.2140160196034840
  0.8949373700890983  0.8410516874363089  0.3530043211184384
  0.6399350387635244  0.8315260221524384  0.1741504389490111
  0.9456062241152735  0.9668237955572512  0.1170233626139850
  0.5015669446117098  0.5447156570132196  0.0890237897254220
  0.1420057161411557  0.8400548359098937  0.1730529233914372
  0.7886383923915341  0.1276609738927218  0.2520781410706757
  0.3373465068904282  0.2302136062718143  0.0086854001471710
  0.6361993619414906  0.3231512064180276  0.0712103111904373
  0.1345031408798878  0.3226121506264061  0.0715863100908831
  0.2868790464528846  0.6089753993174707  0.1563378349149022
  0.9271229285923344  0.9020339723047293  0.2368403233584189
  0.1099949341887022  0.2599456870787873  0.1947858304400564
  0.9619541936315706  0.4862811307660210  0.2159374608557908
  0.0701108912419420  0.6934535017973674  0.3992449489056645
  0.6005864244453466  0.2628482546526899  0.1958923385827279
  0.2454808884365770  0.5477113535748442  0.2763572753488479
  0.2178285526185996  0.4772689041990322  0.3909378463146342
  0.4242179078513252  0.9070442662706967  0.2373610107453429
  0.4675340758606844  0.9671093112524016  0.1170119631004139
  0.1732235469473959  0.8987154075874115  0.0609516574982215
  0.9875963192485202  0.5397058779576537  0.1061736701502498
  0.6195341906929533  0.7909241139104628  0.0081843970806120
  0.2862183492136852  0.6747954993651776  0.0402011732750514
  0.7075766263990529  0.4772999706670255  0.3878305428275818
  0.3918165393782591  0.8394882598624540  0.3534735664988715
  0.9446751387089894  0.4454654496647871  0.0079567559698992
  0.8247236592446792  0.2026513462034420  0.1379916244451730
  0.5727930996095570  0.1953596481838396  0.3175633382111593
  0.7494849509232386  0.5495297882111345  0.2780962206930986
  0.7830537197890378  0.1160895633357387  0.0390213798609369
  0.5805436675789948  0.7073559437840747  0.3928772089582046
  0.2857061175560944  0.1263646483934495  0.2501681271524995
  0.1050123057259212  0.7684589476688446  0.2888431575201740
  0.9195931712113039  0.3965139937679897  0.3302733458432894
  0.3212947374448597  0.1895678146530029  0.1335836185975922
  0.7724150125963920  0.6126952527731033  0.1605910938509298
  0.7412298482696166  0.0360722774907796  0.3613864405330092
  0.8855584835471809  0.5576103293413452  0.4407609317110755
 
  0.00000000E+00  0.00000000E+00  0.00000000E+00
  0.00000000E+00  0.00000000E+00  0.00000000E+00
  0.00000000E+00  0.00000000E+00  0.00000000E+00
  0.00000000E+00  0.00000000E+00  0.00000000E+00
  0.00000000E+00  0.00000000E+00  0.00000000E+00
  0.00000000E+00  0.00000000E+00  0.00000000E+00
  0.00000000E+00  0.00000000E+00  0.00000000E+00
  0.00000000E+00  0.00000000E+00  0.00000000E+00
  0.00000000E+00  0.00000000E+00  0.00000000E+00
  0.00000000E+00  0.00000000E+00  0.00000000E+00
  0.00000000E+00  0.00000000E+00  0.00000000E+00
  0.00000000E+00  0.00000000E+00  0.00000000E+00
  0.00000000E+00  0.00000000E+00  0.00000000E+00
  0.00000000E+00  0.00000000E+00  0.00000000E+00
  0.00000000E+00  0.00000000E+00  0.00000000E+00
  0.00000000E+00  0.00000000E+00  0.00000000E+00
  0.00000000E+00  0.00000000E+00  0.00000000E+00
  0.00000000E+00  0.00000000E+00  0.00000000E+00
  0.00000000E+00  0.00000000E+00  0.00000000E+00
  0.00000000E+00  0.00000000E+00  0.00000000E+00
  0.00000000E+00  0.00000000E+00  0.00000000E+00
  0.00000000E+00  0.00000000E+00  0.00000000E+00
  0.00000000E+00  0.00000000E+00  0.00000000E+00
  0.00000000E+00  0.00000000E+00  0.00000000E+00
  0.00000000E+00  0.00000000E+00  0.00000000E+00
  0.00000000E+00  0.00000000E+00  0.00000000E+00
  0.00000000E+00  0.00000000E+00  0.00000000E+00
  0.00000000E+00  0.00000000E+00  0.00000000E+00
  0.00000000E+00  0.00000000E+00  0.00000000E+00
  0.00000000E+00  0.00000000E+00  0.00000000E+00
  0.00000000E+00  0.00000000E+00  0.00000000E+00
  0.00000000E+00  0.00000000E+00  0.00000000E+00
  0.00000000E+00  0.00000000E+00  0.00000000E+00
  0.00000000E+00  0.00000000E+00  0.00000000E+00
  0.00000000E+00  0.00000000E+00  0.00000000E+00
  0.00000000E+00  0.00000000E+00  0.00000000E+00
  0.00000000E+00  0.00000000E+00  0.00000000E+00
  0.00000000E+00  0.00000000E+00  0.00000000E+00
  0.00000000E+00  0.00000000E+00  0.00000000E+00
  0.00000000E+00  0.00000000E+00  0.00000000E+00
  0.00000000E+00  0.00000000E+00  0.00000000E+00
  0.00000000E+00  0.00000000E+00  0.00000000E+00
  0.00000000E+00  0.00000000E+00  0.00000000E+00
  0.00000000E+00  0.00000000E+00  0.00000000E+00
  0.00000000E+00  0.00000000E+00  0.00000000E+00
  0.00000000E+00  0.00000000E+00  0.00000000E+00
