Amorphous+H                             
   1.00000000000000     
     8.4506998061999994    0.0000000000000000    0.0000000000000000
    -4.2253499030999997    7.3185207118999998    0.0000000000000000
     0.0000000000000000    0.0000000000000000   24.2000007629000002
   Ir   Pd   Pt   Rh   Ru   H 
     9     9     9     9     9     1
Direct
  0.6982322883416514  0.6484765529965579  0.0334919540099988
  0.9092990666571314  0.1175807752645525  0.3306219528016780
  0.4799937980665425  0.5772172706914138  0.4105297156558582
  0.5918437243998284  0.7912350004813953  0.3264676679945937
  0.0253313548294089  0.3542001371984653  0.2371466603317309
  0.2103449931286330  0.1717919809233965  0.2691188973610544
  0.4104018093507527  0.6055355810443401  0.0934903054796711
  0.3097924501270531  0.7529712936953182  0.3864554365979378
  0.0549024556014735  0.6380067024545222  0.3069121330367253
  0.8929243225596895  0.4693609979187982  0.0467644181739907
  0.7118077017022096  0.3012336482672548  0.2954068335324788
  0.8817534858940019  0.8208619820866782  0.2704297355295609
  0.7537178900980671  0.9437269207410220  0.0897523990252415
  0.7911426663937376  0.2398413519887332  0.1459213679658283
  0.3477398725819110  0.6738997522279399  0.2394811023454400
  0.6862577375778295  0.0105893349138646  0.2376686887698910
  0.5652005175364360  0.1237720949651133  0.0477227178176110
  0.1674482490587788  0.8632083058966594  0.2084941757473671
  0.8347166402024876  0.5273433712869677  0.2084054841801802
  0.6459636576134697  0.7092394087152776  0.1791670918748956
  0.2210579564241520  0.4373497365289496  0.3341923535144238
  0.8887096641671630  0.1736610571440947  0.0009466818640327
  0.2273771714396850  0.7929695062844574  0.0544171279863881
  0.4575339276201024  0.9063498547992669  0.1472521843943840
  0.9892117565046448  0.0542828228611600  0.1784161942619893
  0.3862764432952623  0.3228018980293760  0.0301884010129404
  0.0476743611706165  0.9769679250724719  0.0301222655942091
  0.6086292348598075  0.4222659438861125  0.1198402415497959
  0.0971528824272796  0.2817763369465719  0.0899834218407597
  0.4217022990543948  0.2667250740102892  0.3586885721087502
  0.5259092998590124  0.4864791975068428  0.2684739885629040
  0.1195173982881915  0.5663054070981682  0.1456898732330467
  0.2796474385225606  0.0892198899518533  0.1178634978403476
  0.3772896902604709  0.9767209334362180  0.2997084056564605
  0.9096753845203327  0.3849860729509858  0.3865294941541659
  0.6085164783451948  0.0691205540822861  0.3821294260815694
  0.3090252798665852  0.3698880142814453  0.1774220480523126
  0.2179539410258368  0.5060242502786998  0.0056182767278919
  0.8064798554131348  0.8769094841776001  0.4087314516298813
  0.7396367612564211  0.5825079854646784  0.3580675115790939
  0.0164924227986518  0.7069451561274094  0.4146789502360489
  0.9336182901088084  0.7424101214206656  0.1151541218101940
  0.5168552839587041  0.7873523540503349  0.0023186800109673
  0.4795427589220109  0.1950322282381546  0.2071097696098247
  0.1030968461210225  0.9778867499540432  0.3597423663196203
  0.6252024110488752  0.7162189916595826  0.4613658951362570
 
  0.00000000E+00  0.00000000E+00  0.00000000E+00
  0.00000000E+00  0.00000000E+00  0.00000000E+00
  0.00000000E+00  0.00000000E+00  0.00000000E+00
  0.00000000E+00  0.00000000E+00  0.00000000E+00
  0.00000000E+00  0.00000000E+00  0.00000000E+00
  0.00000000E+00  0.00000000E+00  0.00000000E+00
  0.00000000E+00  0.00000000E+00  0.00000000E+00
  0.00000000E+00  0.00000000E+00  0.00000000E+00
  0.00000000E+00  0.00000000E+00  0.00000000E+00
  0.00000000E+00  0.00000000E+00  0.00000000E+00
  0.00000000E+00  0.00000000E+00  0.00000000E+00
  0.00000000E+00  0.00000000E+00  0.00000000E+00
  0.00000000E+00  0.00000000E+00  0.00000000E+00
  0.00000000E+00  0.00000000E+00  0.00000000E+00
  0.00000000E+00  0.00000000E+00  0.00000000E+00
  0.00000000E+00  0.00000000E+00  0.00000000E+00
  0.00000000E+00  0.00000000E+00  0.00000000E+00
  0.00000000E+00  0.00000000E+00  0.00000000E+00
  0.00000000E+00  0.00000000E+00  0.00000000E+00
  0.00000000E+00  0.00000000E+00  0.00000000E+00
  0.00000000E+00  0.00000000E+00  0.00000000E+00
  0.00000000E+00  0.00000000E+00  0.00000000E+00
  0.00000000E+00  0.00000000E+00  0.00000000E+00
  0.00000000E+00  0.00000000E+00  0.00000000E+00
  0.00000000E+00  0.00000000E+00  0.00000000E+00
  0.00000000E+00  0.00000000E+00  0.00000000E+00
  0.00000000E+00  0.00000000E+00  0.00000000E+00
  0.00000000E+00  0.00000000E+00  0.00000000E+00
  0.00000000E+00  0.00000000E+00  0.00000000E+00
  0.00000000E+00  0.00000000E+00  0.00000000E+00
  0.00000000E+00  0.00000000E+00  0.00000000E+00
  0.00000000E+00  0.00000000E+00  0.00000000E+00
  0.00000000E+00  0.00000000E+00  0.00000000E+00
  0.00000000E+00  0.00000000E+00  0.00000000E+00
  0.00000000E+00  0.00000000E+00  0.00000000E+00
  0.00000000E+00  0.00000000E+00  0.00000000E+00
  0.00000000E+00  0.00000000E+00  0.00000000E+00
  0.00000000E+00  0.00000000E+00  0.00000000E+00
  0.00000000E+00  0.00000000E+00  0.00000000E+00
  0.00000000E+00  0.00000000E+00  0.00000000E+00
  0.00000000E+00  0.00000000E+00  0.00000000E+00
  0.00000000E+00  0.00000000E+00  0.00000000E+00
  0.00000000E+00  0.00000000E+00  0.00000000E+00
  0.00000000E+00  0.00000000E+00  0.00000000E+00
  0.00000000E+00  0.00000000E+00  0.00000000E+00
  0.00000000E+00  0.00000000E+00  0.00000000E+00
