step                                    
   1.00000000000000     
     8.4506998061999994    0.0000000000000000    0.0000000000000000
    -4.2253499030999997    7.3185207118999998    0.0000000000000000
     0.0000000000000000    0.0000000000000000   24.2000007629000002
   Ir   Pd   Pt   Rh   Ru   H 
    10     9    10     9    10     1
Direct
  0.9963900214089243  0.0049915167274816  0.1251101118984194
  0.1131412700901397  0.2112779122959355  0.2144981080070590
  0.5656095791061179  0.1207494735428424  0.0386844045684297
  0.2442345864320352  0.4541881854588645  0.0393904946173578
  0.5507475916199946  0.4401672408053907  0.0384626756422322
  0.3357582060068126  0.6723979172795428  0.1237381877234984
  0.3274742514812926  0.6781145677328138  0.3940218451349474
  0.5560057449226431  0.7783235252708669  0.0381215326269243
  0.6682369744888127  0.6687187425514279  0.1264349821055246
  0.8174183675440249  0.5649297799525665  0.4711154659353257
  0.2222706953834107  0.1164079321009279  0.0335675341790493
  0.2219111826130264  0.1088742722539727  0.3058566616175288
  0.7767485359168207  0.2238169693788757  0.2158106252765273
  0.0189105219721773  0.3388091250488461  0.4023599634424557
  0.1096843506015263  0.5571532355598209  0.2152315776667847
  0.3324474383499405  0.3254479186583362  0.4009820042776195
  0.8839576845044658  0.4401548586401957  0.0333736080748236
  0.8870270265785009  0.4464474033995364  0.3111116295979907
  0.2282862120825045  0.7790305741743770  0.0332689094176514
  0.3241763117268828 -0.0059870631006522  0.3991722216838265
  0.8894258932082583  0.1058916649417160  0.3077778784776602
  0.2194555251503307  0.4436240906313005  0.3065445151641351
  0.5610073050162149  0.4435492969718141  0.3062837108014387
  0.4444099826624618  0.5508709770298448  0.2130234069632254
  0.9973482208959276  0.6644266880697151  0.1259457927356292
  0.5563332148368548  0.7836978369860162  0.3045695604191992
  0.4519637787915978  0.8969013846802663  0.2138345309720470
  0.6463682105792231  0.6637697326115813  0.3969862162771365
  0.8092179865380001  0.8968791432730027  0.4818966781080819
  0.3399181052617388  0.0081980162149536  0.1275070703421331
  0.5572462414960759  0.1132891170309697  0.3076118226821832
  0.6555613473914368 -0.0033706255380205  0.4028293022620646
  0.8742063359405201  0.1025219854292296  0.0358209496478258
  0.0031717591660587  0.3272650832764194  0.1246977368643510
  0.2187255907477504  0.7773983560357756  0.3051637345463004
  0.1071912974957567  0.8925541420207135  0.2145832922831711
  0.8705564230639284  0.7774628242418520  0.0371328409684245
  0.8957220034036241  0.7794216279758189  0.3064842499103120
 -0.0038000288918902  0.9819149914189920  0.3952418491655250
  0.4544289560707704  0.2342498209599561  0.2133550170545017
  0.6714462617481020  0.0012925930520136  0.1233924939797927
  0.3303219476910702  0.3224094490415073  0.1266146719285420
  0.6539162888117412  0.3297031158416754  0.1261341534350247
  0.6333073796659408  0.2994097562465441  0.3989068180310337
  0.7655558366321124  0.5553239225369516  0.2138526895720070
  0.0235477734631258  0.6832765603994045  0.3971708973765830
  0.7897199382607027  0.8864231632758278  0.2142370957097719
  0.7847449303044990  0.2587659865265666  0.4751399731542265
  0.8578147257679987  0.7439948480856202  0.5189885106736938
 
  0.00000000E+00  0.00000000E+00  0.00000000E+00
  0.00000000E+00  0.00000000E+00  0.00000000E+00
  0.00000000E+00  0.00000000E+00  0.00000000E+00
  0.00000000E+00  0.00000000E+00  0.00000000E+00
  0.00000000E+00  0.00000000E+00  0.00000000E+00
  0.00000000E+00  0.00000000E+00  0.00000000E+00
  0.00000000E+00  0.00000000E+00  0.00000000E+00
  0.00000000E+00  0.00000000E+00  0.00000000E+00
  0.00000000E+00  0.00000000E+00  0.00000000E+00
  0.00000000E+00  0.00000000E+00  0.00000000E+00
  0.00000000E+00  0.00000000E+00  0.00000000E+00
  0.00000000E+00  0.00000000E+00  0.00000000E+00
  0.00000000E+00  0.00000000E+00  0.00000000E+00
  0.00000000E+00  0.00000000E+00  0.00000000E+00
  0.00000000E+00  0.00000000E+00  0.00000000E+00
  0.00000000E+00  0.00000000E+00  0.00000000E+00
  0.00000000E+00  0.00000000E+00  0.00000000E+00
  0.00000000E+00  0.00000000E+00  0.00000000E+00
  0.00000000E+00  0.00000000E+00  0.00000000E+00
  0.00000000E+00  0.00000000E+00  0.00000000E+00
  0.00000000E+00  0.00000000E+00  0.00000000E+00
  0.00000000E+00  0.00000000E+00  0.00000000E+00
  0.00000000E+00  0.00000000E+00  0.00000000E+00
  0.00000000E+00  0.00000000E+00  0.00000000E+00
  0.00000000E+00  0.00000000E+00  0.00000000E+00
  0.00000000E+00  0.00000000E+00  0.00000000E+00
  0.00000000E+00  0.00000000E+00  0.00000000E+00
  0.00000000E+00  0.00000000E+00  0.00000000E+00
  0.00000000E+00  0.00000000E+00  0.00000000E+00
  0.00000000E+00  0.00000000E+00  0.00000000E+00
  0.00000000E+00  0.00000000E+00  0.00000000E+00
  0.00000000E+00  0.00000000E+00  0.00000000E+00
  0.00000000E+00  0.00000000E+00  0.00000000E+00
  0.00000000E+00  0.00000000E+00  0.00000000E+00
  0.00000000E+00  0.00000000E+00  0.00000000E+00
  0.00000000E+00  0.00000000E+00  0.00000000E+00
  0.00000000E+00  0.00000000E+00  0.00000000E+00
  0.00000000E+00  0.00000000E+00  0.00000000E+00
  0.00000000E+00  0.00000000E+00  0.00000000E+00
  0.00000000E+00  0.00000000E+00  0.00000000E+00
  0.00000000E+00  0.00000000E+00  0.00000000E+00
  0.00000000E+00  0.00000000E+00  0.00000000E+00
  0.00000000E+00  0.00000000E+00  0.00000000E+00
  0.00000000E+00  0.00000000E+00  0.00000000E+00
  0.00000000E+00  0.00000000E+00  0.00000000E+00
  0.00000000E+00  0.00000000E+00  0.00000000E+00
  0.00000000E+00  0.00000000E+00  0.00000000E+00
  0.00000000E+00  0.00000000E+00  0.00000000E+00
  0.00000000E+00  0.00000000E+00  0.00000000E+00
