step                                    
   1.00000000000000     
     8.4506998061999994    0.0000000000000000    0.0000000000000000
    -4.2253499030999997    7.3185207118999998    0.0000000000000000
     0.0000000000000000    0.0000000000000000   24.2000007629000002
   Ir   Pd   Pt   Rh   Ru
     9    11    10     9     9
Direct
  0.5558875875715978  0.1075132311426808  0.0394649761110549
  0.5464719664857114  0.1111765029308697  0.3089280114880568
  0.7739847752113047  0.2307071831802530  0.2169846234626205
  0.0126312677499625  0.3517284260813772  0.3955166804289399
  0.3248660074345437  0.3303903840611654  0.1265150280400858
  0.8755378890977258  0.4436102746178095  0.3063789117383658
  0.9971902908978152  0.6580545695404817  0.1258906797207913
  0.3280951413460368  0.6540194508459997  0.3924530866189900
  0.8868916904801958  0.7776706755750028  0.3066750937343479
  0.0034213129461688  0.0099163962684684  0.3991321519270993
  0.2255707783410713  0.1148010259827861  0.0321352675309533
  0.3346482351420178  0.0104986321101779  0.4007788702357339
  0.6448070524368952 -0.0123034331041548  0.3988608823233252
  0.2235961817916162  0.4425092692572782  0.3040445742443711
  0.8892227252757550  0.4428415095150201  0.0330255558805692
  0.1065214488220810  0.8844923699404459  0.2161894680572024
  0.4495645197334038  0.8889964645374471  0.2172724205425125
  0.7736072016495731  0.8878965543856437  0.2166779996170332
  0.7774601680746007  0.8921772175378576  0.4847479263739661
  0.7848732871359269  0.5483610088336417  0.4844337957751270
  0.0023128586653009  0.0052330091405738  0.1262620173475881
  0.8847037059230072  0.1089187817042663  0.3061829206732316
  0.1019615339965365  0.5466665298622798  0.2165859225674100
  0.0062014676669621  0.6674028459443623  0.3985996898088625
  0.3328187517651421  0.6674228371489006  0.1281050802562141
  0.5559330944092892  0.7823114387894219  0.0354301747914818
  0.6662768121874796  0.6640775985236752  0.1276707578701369
  0.6522648393829215  0.6541382972585126  0.3984981768793477
  0.8882802925024801  0.7733910241920393  0.0360716178088347
  0.8111606894756079  0.2375789508830426  0.4794387388638084
  0.3363826807885192  0.0039195320299268  0.1262819079909262
  0.4430903369546489  0.2314816591421146  0.2173262331978804
  0.8824798355423393  0.1178489384297965  0.0378889115669205
  0.3312539785561324  0.3352824501647004  0.3943594485676917
  0.5442876308422813  0.4367342067698921  0.0378471262496039
  0.5585422782969484  0.4418435613957367  0.3073368861427681
  0.6671663988868655  0.3292555254670425  0.1275374800090928
  0.2270134351907912  0.7752981671283454  0.0380050777612276
  0.2236205094792351  0.7882514248028372  0.3089680039037773
  0.2171655194471642  0.0990598039727141  0.3063567838818058
  0.1262756612713607  0.2328531234976493  0.2164059692470988
  0.6778000169526451  0.0221781093857302  0.1256355475860744
  0.9964646072838137  0.3235532661764723  0.1261656423597836
  0.2260858642954397  0.4463756471943268  0.0414845070382837
  0.4482351690505005  0.5446112128771821  0.2160797089737275
  0.6730392942180404  0.3355638671092893  0.3953634175924410
  0.7661666454649765  0.5456248391738224  0.2171936048182658
  0.5573964878795651  0.7731251205950919  0.3077826543945619
 
  0.00000000E+00  0.00000000E+00  0.00000000E+00
  0.00000000E+00  0.00000000E+00  0.00000000E+00
  0.00000000E+00  0.00000000E+00  0.00000000E+00
  0.00000000E+00  0.00000000E+00  0.00000000E+00
  0.00000000E+00  0.00000000E+00  0.00000000E+00
  0.00000000E+00  0.00000000E+00  0.00000000E+00
  0.00000000E+00  0.00000000E+00  0.00000000E+00
  0.00000000E+00  0.00000000E+00  0.00000000E+00
  0.00000000E+00  0.00000000E+00  0.00000000E+00
  0.00000000E+00  0.00000000E+00  0.00000000E+00
  0.00000000E+00  0.00000000E+00  0.00000000E+00
  0.00000000E+00  0.00000000E+00  0.00000000E+00
  0.00000000E+00  0.00000000E+00  0.00000000E+00
  0.00000000E+00  0.00000000E+00  0.00000000E+00
  0.00000000E+00  0.00000000E+00  0.00000000E+00
  0.00000000E+00  0.00000000E+00  0.00000000E+00
  0.00000000E+00  0.00000000E+00  0.00000000E+00
  0.00000000E+00  0.00000000E+00  0.00000000E+00
  0.00000000E+00  0.00000000E+00  0.00000000E+00
  0.00000000E+00  0.00000000E+00  0.00000000E+00
  0.00000000E+00  0.00000000E+00  0.00000000E+00
  0.00000000E+00  0.00000000E+00  0.00000000E+00
  0.00000000E+00  0.00000000E+00  0.00000000E+00
  0.00000000E+00  0.00000000E+00  0.00000000E+00
  0.00000000E+00  0.00000000E+00  0.00000000E+00
  0.00000000E+00  0.00000000E+00  0.00000000E+00
  0.00000000E+00  0.00000000E+00  0.00000000E+00
  0.00000000E+00  0.00000000E+00  0.00000000E+00
  0.00000000E+00  0.00000000E+00  0.00000000E+00
  0.00000000E+00  0.00000000E+00  0.00000000E+00
  0.00000000E+00  0.00000000E+00  0.00000000E+00
  0.00000000E+00  0.00000000E+00  0.00000000E+00
  0.00000000E+00  0.00000000E+00  0.00000000E+00
  0.00000000E+00  0.00000000E+00  0.00000000E+00
  0.00000000E+00  0.00000000E+00  0.00000000E+00
  0.00000000E+00  0.00000000E+00  0.00000000E+00
  0.00000000E+00  0.00000000E+00  0.00000000E+00
  0.00000000E+00  0.00000000E+00  0.00000000E+00
  0.00000000E+00  0.00000000E+00  0.00000000E+00
  0.00000000E+00  0.00000000E+00  0.00000000E+00
  0.00000000E+00  0.00000000E+00  0.00000000E+00
  0.00000000E+00  0.00000000E+00  0.00000000E+00
  0.00000000E+00  0.00000000E+00  0.00000000E+00
  0.00000000E+00  0.00000000E+00  0.00000000E+00
  0.00000000E+00  0.00000000E+00  0.00000000E+00
  0.00000000E+00  0.00000000E+00  0.00000000E+00
  0.00000000E+00  0.00000000E+00  0.00000000E+00
  0.00000000E+00  0.00000000E+00  0.00000000E+00
