step                                    
   1.00000000000000     
     8.4506998061999994    0.0000000000000000    0.0000000000000000
    -4.2253499030999997    7.3185207118999998    0.0000000000000000
     0.0000000000000000    0.0000000000000000   24.2000007629000002
   Ir   Pd   Pt   Rh   Ru   H 
     9    10     9     9    11     1
Direct
  0.9960149247572174  0.0040588616734504  0.1270910142714604
  0.1132066976161900  0.2109926207890832  0.2160678291267790
  0.5656492369821550  0.1204393119547000  0.0407993041272369
  0.2438697540195886  0.4543966104338767  0.0410321555037999
  0.5506814693002419  0.4397725703561028  0.0403927202702494
  0.3368225367219107  0.6713195427623262  0.1257285736691764
  0.3202441832980604  0.6764639109657624  0.3965286739575066
  0.5560957835549606  0.7780596852980382  0.0398855423013732
  0.6672083839495934  0.6688510056284603  0.1288768000728656
  0.2211679774377303  0.1159823134927182  0.0352487963852198
  0.2262538688756660  0.1100898398397031  0.3062965335550441
  0.7773136074721267  0.2234978814290083  0.2167977192408885
 -0.0017333150468112  0.3392052426786755  0.4038301496242245
  0.1112851356745238  0.5566335175550530  0.2165083615654741
  0.3138855148570179  0.3191320341742757  0.4038609840482510
  0.8841566879446305  0.4396074561713504  0.0350379501500774
  0.8894127018594984  0.4512120731369957  0.3104648549595398
  0.2282550715002171  0.7785696547774689  0.0351651344685427
  0.7676818379413168  0.2079402858571933  0.4868911383478199
  0.3268307638688892 -0.0035563796819760  0.4035191167051998
  0.8900587082522511  0.1066030299860316  0.3111089454972860
  0.2171812043292311  0.4426892427120950  0.3093083124731659
  0.5599007994834555  0.4387138736029888  0.3078958837692393
  0.4438683471623676  0.5492815730220255  0.2160800093623831
  0.9966374623215486  0.6638811134468170  0.1277215843535780
  0.5555614397974449  0.7830368920071650  0.3067039337001072
  0.4518456109980686  0.8969667568189053  0.2151907876460965
  0.6219251194752207  0.6449610664755806  0.3999726614696877
  0.3382143034262348  0.0079473241636143  0.1289110214580265
  0.5593533866480423  0.1139868532707461  0.3085776663493464
  0.6388561733428685  0.9898839987344427  0.4009128703407563
  0.8733484113178642  0.1016656502341108  0.0374867904238823
  0.0026717924051873  0.3262315140053169  0.1261800010612619
  0.2228355708206621  0.7809611427534290  0.3062960143375742
  0.1065131103090780  0.8911713781105769  0.2166470962321029
  0.8705673607751526  0.7769156726479637  0.0391389142190403
  0.8931101177460392  0.7808799346601244  0.3114281278104672
  0.0159652174528636  0.9943657584143815  0.3983406840460461
  0.4541842813737098  0.2322383434142229  0.2143735383194005
  0.6718642615129056 -0.0006761495608035  0.1253071201053674
  0.3306523228319203  0.3237002469295633  0.1281800838393896
  0.6548225794343537  0.3313596377599867  0.1279724796994502
  0.6468550399188492  0.3157983063360983  0.4010932459839943
  0.7659000922403295  0.5546950565178910  0.2156035595163090
  0.0239136727776643  0.6858345076309220  0.3989800351142089
  0.7912545774485554  0.8880578580829916  0.2167092899617127
  0.8214114041882864  0.5818868791339435  0.4658664357597507
  0.8243815014365812  0.9048008675724043  0.4663955874210564
  0.4504030651885276  0.2178332498241959  0.4436339703785801
 
  0.00000000E+00  0.00000000E+00  0.00000000E+00
  0.00000000E+00  0.00000000E+00  0.00000000E+00
  0.00000000E+00  0.00000000E+00  0.00000000E+00
  0.00000000E+00  0.00000000E+00  0.00000000E+00
  0.00000000E+00  0.00000000E+00  0.00000000E+00
  0.00000000E+00  0.00000000E+00  0.00000000E+00
  0.00000000E+00  0.00000000E+00  0.00000000E+00
  0.00000000E+00  0.00000000E+00  0.00000000E+00
  0.00000000E+00  0.00000000E+00  0.00000000E+00
  0.00000000E+00  0.00000000E+00  0.00000000E+00
  0.00000000E+00  0.00000000E+00  0.00000000E+00
  0.00000000E+00  0.00000000E+00  0.00000000E+00
  0.00000000E+00  0.00000000E+00  0.00000000E+00
  0.00000000E+00  0.00000000E+00  0.00000000E+00
  0.00000000E+00  0.00000000E+00  0.00000000E+00
  0.00000000E+00  0.00000000E+00  0.00000000E+00
  0.00000000E+00  0.00000000E+00  0.00000000E+00
  0.00000000E+00  0.00000000E+00  0.00000000E+00
  0.00000000E+00  0.00000000E+00  0.00000000E+00
  0.00000000E+00  0.00000000E+00  0.00000000E+00
  0.00000000E+00  0.00000000E+00  0.00000000E+00
  0.00000000E+00  0.00000000E+00  0.00000000E+00
  0.00000000E+00  0.00000000E+00  0.00000000E+00
  0.00000000E+00  0.00000000E+00  0.00000000E+00
  0.00000000E+00  0.00000000E+00  0.00000000E+00
  0.00000000E+00  0.00000000E+00  0.00000000E+00
  0.00000000E+00  0.00000000E+00  0.00000000E+00
  0.00000000E+00  0.00000000E+00  0.00000000E+00
  0.00000000E+00  0.00000000E+00  0.00000000E+00
  0.00000000E+00  0.00000000E+00  0.00000000E+00
  0.00000000E+00  0.00000000E+00  0.00000000E+00
  0.00000000E+00  0.00000000E+00  0.00000000E+00
  0.00000000E+00  0.00000000E+00  0.00000000E+00
  0.00000000E+00  0.00000000E+00  0.00000000E+00
  0.00000000E+00  0.00000000E+00  0.00000000E+00
  0.00000000E+00  0.00000000E+00  0.00000000E+00
  0.00000000E+00  0.00000000E+00  0.00000000E+00
  0.00000000E+00  0.00000000E+00  0.00000000E+00
  0.00000000E+00  0.00000000E+00  0.00000000E+00
  0.00000000E+00  0.00000000E+00  0.00000000E+00
  0.00000000E+00  0.00000000E+00  0.00000000E+00
  0.00000000E+00  0.00000000E+00  0.00000000E+00
  0.00000000E+00  0.00000000E+00  0.00000000E+00
  0.00000000E+00  0.00000000E+00  0.00000000E+00
  0.00000000E+00  0.00000000E+00  0.00000000E+00
  0.00000000E+00  0.00000000E+00  0.00000000E+00
  0.00000000E+00  0.00000000E+00  0.00000000E+00
  0.00000000E+00  0.00000000E+00  0.00000000E+00
  0.00000000E+00  0.00000000E+00  0.00000000E+00
