5L_3x3_(1\1\1)                          
   1.00000000000000     
     8.4506998061999994    0.0000000000000000    0.0000000000000000
    -4.2253499030999997    7.3185207118999998    0.0000000000000000
     0.0000000000000000    0.0000000000000000   24.2000007629000002
   Ir   Pd   Pt   Rh   Ru   H 
     9     9     9     9     9     1
Direct
  0.5564354186881956  0.1083339343986117  0.0395322899215169
  0.5478149382488016  0.1088264283597069  0.3092905222704649
  0.7774121072382555  0.2318471647613543  0.2171190472116328
  0.0062581496105498  0.3500143358860413  0.3937928978245026
  0.3259138735357288  0.3314425624358802  0.1269022666454290
  0.8760133545987530  0.4459513720598121  0.3063082613872732
  0.9971741005268775  0.6578004657583296  0.1259694371948123
  0.3305981778503668  0.6577483415734149  0.3929732644476822
  0.8865510443992877  0.7778422611734512  0.3066105690679307
  0.0031486554409770  0.0049899988828788  0.3990291954296655
  0.2263634912113259  0.1152524632681470  0.0321716046726070
  0.3379905608235946  0.0044901251760901  0.4011019655350609
  0.6641125724995047 -0.0012064690073059  0.4010187201396887
  0.2269282537744240  0.4443331852301284  0.3040017893666113
  0.8897255081245956  0.4431126451146948  0.0330292320152721
  0.1065043326339205  0.8845954335876374  0.2161878992858177
  0.4520282789996688  0.8919735453458301  0.2174074259629464
  0.7744251614177756  0.8885331219029970  0.2165597783290795
  0.0029382180074806  0.0055396820265548  0.1262435488525167
  0.8861221993364182  0.1067242942914625  0.3064476731020716
  0.1031186023260355  0.5474125016373134  0.2165551331418696
  0.0017656346307293  0.6621495636556783  0.3974165096447416
  0.3333575633676721  0.6676281617894934  0.1283502852452428
  0.5563024479913679  0.7826451740178878  0.0356891313038035
  0.6656946630062144  0.6640229781667858  0.1281476229216263
  0.6570570682554429  0.6592971303013964  0.3976376209148145
  0.8885019550216648  0.7730424070332561  0.0362649750007090
  0.3377359064123502  0.0046173337805824  0.1264198712913391
  0.4433005731003894  0.2300258766510132  0.2180733069251184
  0.8830851128095442  0.1186384437731732  0.0378900271264500
  0.3257776566934799  0.3336314722101680  0.3962347587136800
  0.5449731965646289  0.4376353388625518  0.0382234380144747
  0.5560041136673071  0.4385671253266737  0.3064598563784255
  0.6679502059934146  0.3296154107240631  0.1277827590287508
  0.2263893182506057  0.7757281413582642  0.0381448294183349
  0.2283676647323329  0.7912878247509882  0.3078339583059235
  0.2224580510317017  0.1023004469291374  0.3059409856709340
  0.1254475969137377  0.2321795798363739  0.2167470152082139
  0.6771946957032708  0.0216774462404599  0.1255892464310121
  0.9974070180488447  0.3235440252480180  0.1262654749616620
  0.2264153627227402  0.4461960892377437  0.0417432867819441
  0.4485946210133145  0.5440095784899218  0.2175066582897175
  0.6831929797650232  0.3303513312795484  0.3952151135957711
  0.7673306378304605  0.5461194615512975  0.2173625795137638
  0.5571886322794289  0.7774724036099554  0.3075115453269021
  0.5526707329017901  0.4259501373124964  0.4311765111822304
 
  0.00000000E+00  0.00000000E+00  0.00000000E+00
  0.00000000E+00  0.00000000E+00  0.00000000E+00
  0.00000000E+00  0.00000000E+00  0.00000000E+00
  0.00000000E+00  0.00000000E+00  0.00000000E+00
  0.00000000E+00  0.00000000E+00  0.00000000E+00
  0.00000000E+00  0.00000000E+00  0.00000000E+00
  0.00000000E+00  0.00000000E+00  0.00000000E+00
  0.00000000E+00  0.00000000E+00  0.00000000E+00
  0.00000000E+00  0.00000000E+00  0.00000000E+00
  0.00000000E+00  0.00000000E+00  0.00000000E+00
  0.00000000E+00  0.00000000E+00  0.00000000E+00
  0.00000000E+00  0.00000000E+00  0.00000000E+00
  0.00000000E+00  0.00000000E+00  0.00000000E+00
  0.00000000E+00  0.00000000E+00  0.00000000E+00
  0.00000000E+00  0.00000000E+00  0.00000000E+00
  0.00000000E+00  0.00000000E+00  0.00000000E+00
  0.00000000E+00  0.00000000E+00  0.00000000E+00
  0.00000000E+00  0.00000000E+00  0.00000000E+00
  0.00000000E+00  0.00000000E+00  0.00000000E+00
  0.00000000E+00  0.00000000E+00  0.00000000E+00
  0.00000000E+00  0.00000000E+00  0.00000000E+00
  0.00000000E+00  0.00000000E+00  0.00000000E+00
  0.00000000E+00  0.00000000E+00  0.00000000E+00
  0.00000000E+00  0.00000000E+00  0.00000000E+00
  0.00000000E+00  0.00000000E+00  0.00000000E+00
  0.00000000E+00  0.00000000E+00  0.00000000E+00
  0.00000000E+00  0.00000000E+00  0.00000000E+00
  0.00000000E+00  0.00000000E+00  0.00000000E+00
  0.00000000E+00  0.00000000E+00  0.00000000E+00
  0.00000000E+00  0.00000000E+00  0.00000000E+00
  0.00000000E+00  0.00000000E+00  0.00000000E+00
  0.00000000E+00  0.00000000E+00  0.00000000E+00
  0.00000000E+00  0.00000000E+00  0.00000000E+00
  0.00000000E+00  0.00000000E+00  0.00000000E+00
  0.00000000E+00  0.00000000E+00  0.00000000E+00
  0.00000000E+00  0.00000000E+00  0.00000000E+00
  0.00000000E+00  0.00000000E+00  0.00000000E+00
  0.00000000E+00  0.00000000E+00  0.00000000E+00
  0.00000000E+00  0.00000000E+00  0.00000000E+00
  0.00000000E+00  0.00000000E+00  0.00000000E+00
  0.00000000E+00  0.00000000E+00  0.00000000E+00
  0.00000000E+00  0.00000000E+00  0.00000000E+00
  0.00000000E+00  0.00000000E+00  0.00000000E+00
  0.00000000E+00  0.00000000E+00  0.00000000E+00
  0.00000000E+00  0.00000000E+00  0.00000000E+00
  0.00000000E+00  0.00000000E+00  0.00000000E+00
