5L_3x3_(1\1\1)                          
   1.00000000000000     
     8.4506998061999994    0.0000000000000000    0.0000000000000000
    -4.2253499030999997    7.3185207118999998    0.0000000000000000
     0.0000000000000000    0.0000000000000000   24.2000007629000002
   Ir   Pd   Pt   Rh   Ru   H 
     8     9     9     9     9     1
Direct
  0.5549549082919424  0.1063891260050375  0.0395368843020668
  0.5496000185873108  0.1100974672315507  0.3087092406016553
  0.7747673374740842  0.2291940711289817  0.2172345099864721
  0.3236617169644519  0.3317290698169638  0.1274003679421784
  0.8719992770711991  0.4388352738719510  0.3066520462224060
  0.9972603915093133  0.6563258529710535  0.1258376513720547
  0.3450041379863857  0.6701923810097753  0.3917815613689375
  0.8900696367450032  0.7767033812518019  0.3058381085438592
  0.0059478950608019  0.0004781790319470  0.3963715796859192
  0.2257447654417939  0.1147980580385784  0.0322975133947506
  0.3362086004257132  0.0012398235913215  0.4011886992585491
  0.6614446298146156  0.0013211773858195  0.3990886952268066
  0.2123128476812637  0.4386514750510265  0.3076092742578290
  0.8889742743233092  0.4428255746742477  0.0332638733490862
  0.1082412794171710  0.8845687233770321  0.2159603313653694
  0.4497596985601257  0.8898637767307145  0.2171598892177939
  0.7754369204620876  0.8877299806529941  0.2164964127937834
  0.0030893517140399  0.0061946370155860  0.1265135450145783
  0.8851452745320186  0.1098109393963826  0.3071354834181153
  0.1016930883596732  0.5462696843158317  0.2171825757330993
  0.0063536534172714  0.6441299805344315  0.3965630786247508
  0.3309044424515886  0.6667111090332286  0.1281558933375345
  0.5562083452656333  0.7813045310035331  0.0360037146232224
  0.6638027349513637  0.6620876405456652  0.1288007498357414
  0.6593695270189908  0.6645297486781317  0.3974678496484459
  0.8870497903818275  0.7724493190355211  0.0369550786797590
  0.3371338797562193  0.0050642931007510  0.1265736273129401
  0.4435726637469436  0.2320564236421074  0.2174691121808252
  0.8821242072299200  0.1180694315432611  0.0380468834947349
  0.3468061268628980  0.3362896744089839  0.3938598195611935
  0.5440472625485060  0.4383557808098066  0.0387770103528744
  0.5556367911249711  0.4443476768482683  0.3054227849259007
  0.6683787694710398  0.3287627630136673  0.1275504984964702
  0.2269102651064775  0.7777145382813628  0.0380798389849428
  0.2240613137170713  0.7860505969317905  0.3088708161800890
  0.2216305935870263  0.1050494435605677  0.3062433246731410
  0.1250002138386654  0.2318154864760182  0.2176236279384053
  0.6769296300146195  0.0209301001445552  0.1256653943755590
  0.9961800009624194  0.3231853527121316  0.1268318732685900
  0.2262650213297446  0.4453722612691960  0.0418070564755820
  0.4469094118896065  0.5452778290780340  0.2184439993364020
  0.6542636020064427  0.3353474767214326  0.3928825027254730
  0.7671806542052939  0.5470460074138944  0.2175288122660080
  0.5581176415149476  0.7760330305496651  0.3063848117812984
  0.8006085967807131  0.5657215261473776  0.4354288094536300
 
  0.00000000E+00  0.00000000E+00  0.00000000E+00
  0.00000000E+00  0.00000000E+00  0.00000000E+00
  0.00000000E+00  0.00000000E+00  0.00000000E+00
  0.00000000E+00  0.00000000E+00  0.00000000E+00
  0.00000000E+00  0.00000000E+00  0.00000000E+00
  0.00000000E+00  0.00000000E+00  0.00000000E+00
  0.00000000E+00  0.00000000E+00  0.00000000E+00
  0.00000000E+00  0.00000000E+00  0.00000000E+00
  0.00000000E+00  0.00000000E+00  0.00000000E+00
  0.00000000E+00  0.00000000E+00  0.00000000E+00
  0.00000000E+00  0.00000000E+00  0.00000000E+00
  0.00000000E+00  0.00000000E+00  0.00000000E+00
  0.00000000E+00  0.00000000E+00  0.00000000E+00
  0.00000000E+00  0.00000000E+00  0.00000000E+00
  0.00000000E+00  0.00000000E+00  0.00000000E+00
  0.00000000E+00  0.00000000E+00  0.00000000E+00
  0.00000000E+00  0.00000000E+00  0.00000000E+00
  0.00000000E+00  0.00000000E+00  0.00000000E+00
  0.00000000E+00  0.00000000E+00  0.00000000E+00
  0.00000000E+00  0.00000000E+00  0.00000000E+00
  0.00000000E+00  0.00000000E+00  0.00000000E+00
  0.00000000E+00  0.00000000E+00  0.00000000E+00
  0.00000000E+00  0.00000000E+00  0.00000000E+00
  0.00000000E+00  0.00000000E+00  0.00000000E+00
  0.00000000E+00  0.00000000E+00  0.00000000E+00
  0.00000000E+00  0.00000000E+00  0.00000000E+00
  0.00000000E+00  0.00000000E+00  0.00000000E+00
  0.00000000E+00  0.00000000E+00  0.00000000E+00
  0.00000000E+00  0.00000000E+00  0.00000000E+00
  0.00000000E+00  0.00000000E+00  0.00000000E+00
  0.00000000E+00  0.00000000E+00  0.00000000E+00
  0.00000000E+00  0.00000000E+00  0.00000000E+00
  0.00000000E+00  0.00000000E+00  0.00000000E+00
  0.00000000E+00  0.00000000E+00  0.00000000E+00
  0.00000000E+00  0.00000000E+00  0.00000000E+00
  0.00000000E+00  0.00000000E+00  0.00000000E+00
  0.00000000E+00  0.00000000E+00  0.00000000E+00
  0.00000000E+00  0.00000000E+00  0.00000000E+00
  0.00000000E+00  0.00000000E+00  0.00000000E+00
  0.00000000E+00  0.00000000E+00  0.00000000E+00
  0.00000000E+00  0.00000000E+00  0.00000000E+00
  0.00000000E+00  0.00000000E+00  0.00000000E+00
  0.00000000E+00  0.00000000E+00  0.00000000E+00
  0.00000000E+00  0.00000000E+00  0.00000000E+00
  0.00000000E+00  0.00000000E+00  0.00000000E+00
