5L_3x3_(1\1\1)                          
   1.00000000000000     
     8.4506998061999994    0.0000000000000000    0.0000000000000000
    -4.2253499030999997    7.3185207118999998    0.0000000000000000
     0.0000000000000000    0.0000000000000000   24.2000007629000002
   Ir   Pd   Pt   Rh   Ru   H 
     9     9     9     8     9     1
Direct
  0.5557081269317190  0.1072919355318273  0.0396104121336080
  0.5439829597956262  0.1086005258220377  0.3092937751280619
  0.7771534217640639  0.2328017230537317  0.2172298262054665
  0.0009225730802221  0.3539075183512209  0.3930149588432305
  0.3249957632957215  0.3308983823257565  0.1270527683255103
  0.8769194975972415  0.4497994001929391  0.3059591588937369
  0.9961330935525475  0.6566827747447496  0.1269828109560430
  0.3227065055864166  0.6587363710345330  0.3919887221193536
  0.8832458467232390  0.7786429203905224  0.3065025138357915
  0.0089061708811123  0.0152219317613176  0.3970772013690558
  0.2257718147079707  0.1149866823385526  0.0324266547926723
  0.3398187366329952  0.0046993474565959  0.3998783466803342
  0.6655066235089319 -0.0019161518085162  0.4000634497141166
  0.2324836484657052  0.4337068932832951  0.3078811153115528
  0.8897138789211478  0.4433814465409462  0.0331500089279517
  0.1043331532265326  0.8813610079226607  0.2161066131786871
  0.4513824620442896  0.8921348149457853  0.2174369021159531
  0.7719508077696604  0.8878542785239628  0.2165186021216400
  0.0018862973365745  0.0059508436067588  0.1265379668964187
  0.8859852248883310  0.1077859708816870  0.3061961287702754
  0.1050145923572494  0.5453371347399556  0.2176482734756731
 -0.0006156958487584  0.6685195149161025  0.3974533043992880
  0.3324982013976037  0.6670581707971907  0.1286728138946802
  0.5553143372008040  0.7819825912043342  0.0357545681108945
  0.6633093166963537  0.6633240118669586  0.1283097816315003
  0.6452016612550119  0.6498392464596836  0.3967880052865053
  0.8884489277607505  0.7718502514006783  0.0371529797295123
  0.3363204588822814  0.0042807657520792  0.1262102609083278
  0.4443283252712747  0.2308732741737461  0.2177700094596705
  0.8829759614504060  0.1186415652795665  0.0381372657390027
  0.5447290939003709  0.4375856213298335  0.0382507628817452
  0.5537293200805475  0.4365672051192525  0.3066474123095798
  0.6664400147779538  0.3284703290909231  0.1275097729917694
  0.2249071273755990  0.7739659201372917  0.0382813507368652
  0.2247235290125069  0.7860776502957794  0.3074950169990454
  0.2193016560652518  0.0964671611398326  0.3036530127435813
  0.1251545309076200  0.2329848225574206  0.2174340274154480
  0.6768024667778336  0.0217486905553994  0.1257062137702189
  0.9965493068819721  0.3234611320706798  0.1266579841445060
  0.2252451057964162  0.4461349510192668  0.0418693066543624
  0.4465907832599318  0.5426109398776432  0.2179920987695542
  0.6865198692119029  0.3292067255293625  0.3947890930503025
  0.7675608228301667  0.5456565509358740  0.2170980526590691
  0.5523429220520015  0.7720033938272972  0.3083525654740094
  0.5982587246460359  0.4518282521393919  0.4330994724590859
 
  0.00000000E+00  0.00000000E+00  0.00000000E+00
  0.00000000E+00  0.00000000E+00  0.00000000E+00
  0.00000000E+00  0.00000000E+00  0.00000000E+00
  0.00000000E+00  0.00000000E+00  0.00000000E+00
  0.00000000E+00  0.00000000E+00  0.00000000E+00
  0.00000000E+00  0.00000000E+00  0.00000000E+00
  0.00000000E+00  0.00000000E+00  0.00000000E+00
  0.00000000E+00  0.00000000E+00  0.00000000E+00
  0.00000000E+00  0.00000000E+00  0.00000000E+00
  0.00000000E+00  0.00000000E+00  0.00000000E+00
  0.00000000E+00  0.00000000E+00  0.00000000E+00
  0.00000000E+00  0.00000000E+00  0.00000000E+00
  0.00000000E+00  0.00000000E+00  0.00000000E+00
  0.00000000E+00  0.00000000E+00  0.00000000E+00
  0.00000000E+00  0.00000000E+00  0.00000000E+00
  0.00000000E+00  0.00000000E+00  0.00000000E+00
  0.00000000E+00  0.00000000E+00  0.00000000E+00
  0.00000000E+00  0.00000000E+00  0.00000000E+00
  0.00000000E+00  0.00000000E+00  0.00000000E+00
  0.00000000E+00  0.00000000E+00  0.00000000E+00
  0.00000000E+00  0.00000000E+00  0.00000000E+00
  0.00000000E+00  0.00000000E+00  0.00000000E+00
  0.00000000E+00  0.00000000E+00  0.00000000E+00
  0.00000000E+00  0.00000000E+00  0.00000000E+00
  0.00000000E+00  0.00000000E+00  0.00000000E+00
  0.00000000E+00  0.00000000E+00  0.00000000E+00
  0.00000000E+00  0.00000000E+00  0.00000000E+00
  0.00000000E+00  0.00000000E+00  0.00000000E+00
  0.00000000E+00  0.00000000E+00  0.00000000E+00
  0.00000000E+00  0.00000000E+00  0.00000000E+00
  0.00000000E+00  0.00000000E+00  0.00000000E+00
  0.00000000E+00  0.00000000E+00  0.00000000E+00
  0.00000000E+00  0.00000000E+00  0.00000000E+00
  0.00000000E+00  0.00000000E+00  0.00000000E+00
  0.00000000E+00  0.00000000E+00  0.00000000E+00
  0.00000000E+00  0.00000000E+00  0.00000000E+00
  0.00000000E+00  0.00000000E+00  0.00000000E+00
  0.00000000E+00  0.00000000E+00  0.00000000E+00
  0.00000000E+00  0.00000000E+00  0.00000000E+00
  0.00000000E+00  0.00000000E+00  0.00000000E+00
  0.00000000E+00  0.00000000E+00  0.00000000E+00
  0.00000000E+00  0.00000000E+00  0.00000000E+00
  0.00000000E+00  0.00000000E+00  0.00000000E+00
  0.00000000E+00  0.00000000E+00  0.00000000E+00
  0.00000000E+00  0.00000000E+00  0.00000000E+00
