step                                    
   1.00000000000000     
     8.4506998061999994    0.0000000000000000    0.0000000000000000
    -4.2253499030999997    7.3185207118999998    0.0000000000000000
     0.0000000000000000    0.0000000000000000   24.2000007629000002
   Ir   Pd   Pt   Rh   Ru   H 
     9    10     9    10    10     1
Direct
  0.9958292970658271  0.0043651563474649  0.1268771331242719
  0.1125935016310914  0.2106065836153874  0.2162955279972415
  0.5650913939041772  0.1203418619458060  0.0404715085106788
  0.2435981587603195  0.4534523391033742  0.0411899021364748
  0.5504081470402412  0.4394406623205387  0.0401840295826767
  0.3349748823844994  0.6718542203927882  0.1254009550009481
  0.3289360903557184  0.6805016265628304  0.3954942411379129
  0.5554914028216880  0.7775818377184247  0.0398427220704273
  0.6668915916668068  0.6680185124332567  0.1282199944961782
  0.2216154230260113  0.1156510741836461  0.0351145426430239
  0.2200712850188415  0.1076758821609509  0.3080082843141463
  0.7756736421673027  0.2231099569355616  0.2174063959960350
  0.0199248674459584  0.3426084713268335  0.4060908987505986
  0.1079227149261010  0.5561309704259501  0.2169708838084490
  0.3382098032593492  0.3309973573876892  0.4043332900809163
  0.8835861722296204  0.4395224248966836  0.0351575997593843
  0.8854364740710561  0.4438001267899019  0.3133933482977294
  0.2275256302878776  0.7786135302029769  0.0349803422186517
  0.7947215550786340  0.9011121999146436  0.4852089456566611
  0.3264316665602566 -0.0040980008032182  0.4012338667356888
  0.8884483751692238  0.1054845478433524  0.3095369702067145
  0.2185830149642952  0.4432986997803767  0.3084725341473624
  0.5587029119670538  0.4421992594475208  0.3079549365033692
  0.4424082802585599  0.5496062252531100  0.2146609532823684
  0.9964000209447410  0.6637193809207063  0.1276581608535187
  0.5563904096880358  0.7829107064749881  0.3059016866069172
  0.4503302760099977  0.8957133109824562  0.2153461486853242
  0.6506444974741792  0.6664072396632937  0.3989119221243406
  0.3391202954942776  0.0077820241118013  0.1291470975009722
  0.5547472346790463  0.1124739246696238  0.3089239300565998
  0.6522980376560261 -0.0041008903890141  0.4018508416936809
  0.8733990713697470  0.1014802320161351  0.0374002403091518
  0.0021210167206370  0.3260467278454139  0.1264098879701321
  0.2176881902432611  0.7764600663287380  0.3068126854186606
  0.1058285919549825  0.8915638424818142  0.2164358536504023
  0.8698274855858350  0.7764232390870804  0.0388830305874449
  0.8937541978560274  0.7754226096370649  0.3078240501323313
  0.8144240575603082  0.5593226866399073  0.4712021767778480
 -0.0087305288898830  0.9774101936794365  0.3983525334022165
  0.4527099924359735  0.2329212396548967  0.2152385994297908
  0.6708303469826649  0.0009879070829042  0.1249190695965613
  0.3292489871406221  0.3216981491559890  0.1280062261277498
  0.6532514840370974  0.3290238407819558  0.1281140195671001
  0.6373961849835977  0.3034431704098927  0.4001080348356379
  0.7649089278178333  0.5544644793051187  0.2152888325954100
  0.0239713668399137  0.6881584776342611  0.3986624556272974
  0.7892371538310866  0.8855864409846993  0.2160297752234904
  0.7691405103552871  0.2375817328842258  0.4764328759534237
  0.1085556411681826  0.1955033617707550  0.4356800618160855
 
  0.00000000E+00  0.00000000E+00  0.00000000E+00
  0.00000000E+00  0.00000000E+00  0.00000000E+00
  0.00000000E+00  0.00000000E+00  0.00000000E+00
  0.00000000E+00  0.00000000E+00  0.00000000E+00
  0.00000000E+00  0.00000000E+00  0.00000000E+00
  0.00000000E+00  0.00000000E+00  0.00000000E+00
  0.00000000E+00  0.00000000E+00  0.00000000E+00
  0.00000000E+00  0.00000000E+00  0.00000000E+00
  0.00000000E+00  0.00000000E+00  0.00000000E+00
  0.00000000E+00  0.00000000E+00  0.00000000E+00
  0.00000000E+00  0.00000000E+00  0.00000000E+00
  0.00000000E+00  0.00000000E+00  0.00000000E+00
  0.00000000E+00  0.00000000E+00  0.00000000E+00
  0.00000000E+00  0.00000000E+00  0.00000000E+00
  0.00000000E+00  0.00000000E+00  0.00000000E+00
  0.00000000E+00  0.00000000E+00  0.00000000E+00
  0.00000000E+00  0.00000000E+00  0.00000000E+00
  0.00000000E+00  0.00000000E+00  0.00000000E+00
  0.00000000E+00  0.00000000E+00  0.00000000E+00
  0.00000000E+00  0.00000000E+00  0.00000000E+00
  0.00000000E+00  0.00000000E+00  0.00000000E+00
  0.00000000E+00  0.00000000E+00  0.00000000E+00
  0.00000000E+00  0.00000000E+00  0.00000000E+00
  0.00000000E+00  0.00000000E+00  0.00000000E+00
  0.00000000E+00  0.00000000E+00  0.00000000E+00
  0.00000000E+00  0.00000000E+00  0.00000000E+00
  0.00000000E+00  0.00000000E+00  0.00000000E+00
  0.00000000E+00  0.00000000E+00  0.00000000E+00
  0.00000000E+00  0.00000000E+00  0.00000000E+00
  0.00000000E+00  0.00000000E+00  0.00000000E+00
  0.00000000E+00  0.00000000E+00  0.00000000E+00
  0.00000000E+00  0.00000000E+00  0.00000000E+00
  0.00000000E+00  0.00000000E+00  0.00000000E+00
  0.00000000E+00  0.00000000E+00  0.00000000E+00
  0.00000000E+00  0.00000000E+00  0.00000000E+00
  0.00000000E+00  0.00000000E+00  0.00000000E+00
  0.00000000E+00  0.00000000E+00  0.00000000E+00
  0.00000000E+00  0.00000000E+00  0.00000000E+00
  0.00000000E+00  0.00000000E+00  0.00000000E+00
  0.00000000E+00  0.00000000E+00  0.00000000E+00
  0.00000000E+00  0.00000000E+00  0.00000000E+00
  0.00000000E+00  0.00000000E+00  0.00000000E+00
  0.00000000E+00  0.00000000E+00  0.00000000E+00
  0.00000000E+00  0.00000000E+00  0.00000000E+00
  0.00000000E+00  0.00000000E+00  0.00000000E+00
  0.00000000E+00  0.00000000E+00  0.00000000E+00
  0.00000000E+00  0.00000000E+00  0.00000000E+00
  0.00000000E+00  0.00000000E+00  0.00000000E+00
  0.00000000E+00  0.00000000E+00  0.00000000E+00
