step                                    
   1.00000000000000     
     8.4506998061999994    0.0000000000000000    0.0000000000000000
    -4.2253499030999997    7.3185207118999998    0.0000000000000000
     0.0000000000000000    0.0000000000000000   24.2000007629000002
   Ir   Pd   Pt   Rh   Ru   H 
     9    11    10     9     9     1
Direct
  0.5575555719788897  0.1114295500157394  0.0398932256434551
  0.5504011348655147  0.1156417643033947  0.3094048360445092
  0.7760219185193648  0.2340348311167958  0.2174901318077013
  0.0150393438902204  0.3547329313939163  0.3959199555953957
  0.3268167294468415  0.3341724798575147  0.1269732074660607
  0.8784039378729306  0.4469834782897735  0.3068334567035499
  0.9985022294242886  0.6621048561982952  0.1262596527380746
  0.3304227978527829  0.6584589553383863  0.3929578120169255
  0.8895643251751798  0.7813242101722072  0.3071296194300999
  0.0044650541767410  0.0119217026788809  0.3994610887585405
  0.2269659607615820  0.1185097757340226  0.0326030516327003
  0.3347516225044900  0.0063058561700224  0.4022974509500417
  0.6502424476267107  0.9927497789233869  0.3996143506434306
  0.2266449885303263  0.4471282991269024  0.3044185540291861
  0.8904507027248211  0.4463398713193080  0.0334372088396584
  0.1089922177694139  0.8887608887772853  0.2167727374603408
  0.4518091830167965  0.8929017203507208  0.2177732663143577
  0.7758970804377838  0.8918542981877007  0.2172603868217240
  0.7831603844782126  0.8982385212596682  0.4859181993302936
  0.7929692450510626  0.5565438959776172  0.4854420274938321
  0.0039617748399251  0.0087574094978066  0.1267682395071468
  0.8881445917726493  0.1134267931636928  0.3067210773418660
  0.1037215306079378  0.5511362908099924  0.2167120149297620
  0.0080515729917059  0.6697972962554097  0.3987843011429547
  0.3342438909138997  0.6708738141115628  0.1285930915733207
  0.5569582762863545  0.7855960737746238  0.0360245133135301
  0.6680621153659889  0.6676621559233384  0.1282792655342320
  0.6568977631165456  0.6608631019248470  0.3991792475459734
  0.8895829666923464  0.7769377858180524  0.0365846808631569
  0.8182327843477109  0.2441288402053889  0.4805469581268020
  0.3381886491940455  0.0078027731921530  0.1267510425924745
  0.4453318952805528  0.2355486707570693  0.2179713335391309
  0.8842128143424974  0.1215748796242789  0.0383138298442385
  0.3336655271052720  0.3404704695804214  0.3958268943775088
  0.5458821585497436  0.4401601478644993  0.0383466695175151
  0.5619140946281113  0.4469350682106116  0.3079263157618815
  0.6692725588915890  0.3329522790614159  0.1280292105067519
  0.2286394606732864  0.7791426452658191  0.0385389865054811
  0.2266837030093668  0.7930823886131726  0.3093520815105505
  0.2201541511178904  0.1034410207693014  0.3068188114237646
  0.1278812371250882  0.2364160726880765  0.2168741639736447
  0.6794519179637720  0.0255732237007804  0.1259873953682124
  0.9981003766775745  0.3267996302377142  0.1267434094036224
  0.2276399178584335  0.4499591739843832  0.0419629230654795
  0.4501449793998591  0.5481970318758617  0.2166135651395207
  0.6743519870659022  0.3389765891522369  0.3968805395717887
  0.7676088732073929  0.5489368719580654  0.2178173801751927
  0.5598147825576816  0.7778200223155555  0.3084381125460379
  0.4350867653129168  0.2358532934723041  0.4343537345785816
 
  0.00000000E+00  0.00000000E+00  0.00000000E+00
  0.00000000E+00  0.00000000E+00  0.00000000E+00
  0.00000000E+00  0.00000000E+00  0.00000000E+00
  0.00000000E+00  0.00000000E+00  0.00000000E+00
  0.00000000E+00  0.00000000E+00  0.00000000E+00
  0.00000000E+00  0.00000000E+00  0.00000000E+00
  0.00000000E+00  0.00000000E+00  0.00000000E+00
  0.00000000E+00  0.00000000E+00  0.00000000E+00
  0.00000000E+00  0.00000000E+00  0.00000000E+00
  0.00000000E+00  0.00000000E+00  0.00000000E+00
  0.00000000E+00  0.00000000E+00  0.00000000E+00
  0.00000000E+00  0.00000000E+00  0.00000000E+00
  0.00000000E+00  0.00000000E+00  0.00000000E+00
  0.00000000E+00  0.00000000E+00  0.00000000E+00
  0.00000000E+00  0.00000000E+00  0.00000000E+00
  0.00000000E+00  0.00000000E+00  0.00000000E+00
  0.00000000E+00  0.00000000E+00  0.00000000E+00
  0.00000000E+00  0.00000000E+00  0.00000000E+00
  0.00000000E+00  0.00000000E+00  0.00000000E+00
  0.00000000E+00  0.00000000E+00  0.00000000E+00
  0.00000000E+00  0.00000000E+00  0.00000000E+00
  0.00000000E+00  0.00000000E+00  0.00000000E+00
  0.00000000E+00  0.00000000E+00  0.00000000E+00
  0.00000000E+00  0.00000000E+00  0.00000000E+00
  0.00000000E+00  0.00000000E+00  0.00000000E+00
  0.00000000E+00  0.00000000E+00  0.00000000E+00
  0.00000000E+00  0.00000000E+00  0.00000000E+00
  0.00000000E+00  0.00000000E+00  0.00000000E+00
  0.00000000E+00  0.00000000E+00  0.00000000E+00
  0.00000000E+00  0.00000000E+00  0.00000000E+00
  0.00000000E+00  0.00000000E+00  0.00000000E+00
  0.00000000E+00  0.00000000E+00  0.00000000E+00
  0.00000000E+00  0.00000000E+00  0.00000000E+00
  0.00000000E+00  0.00000000E+00  0.00000000E+00
  0.00000000E+00  0.00000000E+00  0.00000000E+00
  0.00000000E+00  0.00000000E+00  0.00000000E+00
  0.00000000E+00  0.00000000E+00  0.00000000E+00
  0.00000000E+00  0.00000000E+00  0.00000000E+00
  0.00000000E+00  0.00000000E+00  0.00000000E+00
  0.00000000E+00  0.00000000E+00  0.00000000E+00
  0.00000000E+00  0.00000000E+00  0.00000000E+00
  0.00000000E+00  0.00000000E+00  0.00000000E+00
  0.00000000E+00  0.00000000E+00  0.00000000E+00
  0.00000000E+00  0.00000000E+00  0.00000000E+00
  0.00000000E+00  0.00000000E+00  0.00000000E+00
  0.00000000E+00  0.00000000E+00  0.00000000E+00
  0.00000000E+00  0.00000000E+00  0.00000000E+00
  0.00000000E+00  0.00000000E+00  0.00000000E+00
  0.00000000E+00  0.00000000E+00  0.00000000E+00
