Amorphous+H                             
   1.00000000000000     
     8.4506998061999994    0.0000000000000000    0.0000000000000000
    -4.2253499030999997    7.3185207118999998    0.0000000000000000
     0.0000000000000000    0.0000000000000000   24.2000007629000002
   Ir   Pd   Pt   Rh   Ru   H 
     9     9     9     9     9     1
Direct
  0.6958477233220837  0.6451289330986361  0.0337594896499399
  0.9052664243873941  0.1135230680431987  0.3292538657484254
  0.4781368463687128  0.5689404407478148  0.4105626336552142
  0.5822775084504839  0.7860692957256190  0.3265256373889640
  0.0221010070097240  0.3494167108915205  0.2380371024567374
  0.2076260372581549  0.1663998396039625  0.2689516678343596
  0.4069958094838079  0.6015901800610292  0.0933216794133556
  0.3135229670467100  0.7482915418337215  0.3910788351022339
  0.0570925031288636  0.6423892219370826  0.3098905982416504
  0.8903475458257559  0.4662700013236125  0.0469159417665791
  0.7091059424016561  0.2970763824015765  0.2958110278761474
  0.8739448237633479  0.8127574034757710  0.2699724142322475
  0.7503243808100917  0.9402871035440432  0.0898099106691124
  0.7893589722873654  0.2362081772545392  0.1461495333069147
  0.3435030266596317  0.6698099816630746  0.2393063785628852
  0.6812497406699417  0.0058756209773028  0.2375105897426252
  0.5622147448046384  0.1205532746505105  0.0475855170600532
  0.1652064105221542  0.8597152626267844  0.2090597632837718
  0.8317030110029190  0.5221788038559739  0.2085338962027544
  0.6424937436095953  0.7048523210127725  0.1789564558724312
  0.2212794689202972  0.4351306305006552  0.3324296205407420
  0.8853191445717059  0.1700710934601783  0.0009700099443807
  0.2245507746624529  0.7898311955881669  0.0541527424604665
  0.4542013940010275  0.9023062955349809  0.1471404444806576
  0.9857160268901299  0.0496299184586222  0.1784203306339445
  0.3833258495250464  0.3194360169527400  0.0304697523056818
  0.0442723673817539  0.9735257012829724  0.0302219426380975
  0.6059780958756256  0.4175668199162329  0.1199785593224006
  0.0937815693452598  0.2780542696033765  0.0900943092584421
  0.4200196671919399  0.2633402228482435  0.3578892301343100
  0.5230632667846796  0.4820559747152791  0.2677031756179771
  0.1167551639701709  0.5631057443352946  0.1458929899657582
  0.2760967940968902  0.0846145709324038  0.1180162137430610
  0.3744454925264805  0.9712069556665744  0.3011500243835665
  0.9117847744775183  0.3826819141754182  0.3858883072295001
  0.6114334454725575  0.0672948894629258  0.3828890665525770
  0.3053978428893586  0.3654661160294451  0.1771725853900717
  0.2143095278363845  0.5022898719693651  0.0056146082135359
  0.8021020382290353  0.8724398983961751  0.4077457653798318
  0.7328062175111184  0.5732573698355035  0.3593788047037031
  0.0042348074624391  0.7048255820299338  0.4163374465584633
  0.9315283683384212  0.7399330540607106  0.1155042831104417
  0.5147245351800691  0.7847562827227710  0.0024711446000966
  0.4777366672394687  0.1918792838294333  0.2070669672638127
  0.0936201106467537  0.9664613768389709  0.3576976387788145
  0.2415873031603904  0.7594653871250671  0.4541210247232597
 
  0.00000000E+00  0.00000000E+00  0.00000000E+00
  0.00000000E+00  0.00000000E+00  0.00000000E+00
  0.00000000E+00  0.00000000E+00  0.00000000E+00
  0.00000000E+00  0.00000000E+00  0.00000000E+00
  0.00000000E+00  0.00000000E+00  0.00000000E+00
  0.00000000E+00  0.00000000E+00  0.00000000E+00
  0.00000000E+00  0.00000000E+00  0.00000000E+00
  0.00000000E+00  0.00000000E+00  0.00000000E+00
  0.00000000E+00  0.00000000E+00  0.00000000E+00
  0.00000000E+00  0.00000000E+00  0.00000000E+00
  0.00000000E+00  0.00000000E+00  0.00000000E+00
  0.00000000E+00  0.00000000E+00  0.00000000E+00
  0.00000000E+00  0.00000000E+00  0.00000000E+00
  0.00000000E+00  0.00000000E+00  0.00000000E+00
  0.00000000E+00  0.00000000E+00  0.00000000E+00
  0.00000000E+00  0.00000000E+00  0.00000000E+00
  0.00000000E+00  0.00000000E+00  0.00000000E+00
  0.00000000E+00  0.00000000E+00  0.00000000E+00
  0.00000000E+00  0.00000000E+00  0.00000000E+00
  0.00000000E+00  0.00000000E+00  0.00000000E+00
  0.00000000E+00  0.00000000E+00  0.00000000E+00
  0.00000000E+00  0.00000000E+00  0.00000000E+00
  0.00000000E+00  0.00000000E+00  0.00000000E+00
  0.00000000E+00  0.00000000E+00  0.00000000E+00
  0.00000000E+00  0.00000000E+00  0.00000000E+00
  0.00000000E+00  0.00000000E+00  0.00000000E+00
  0.00000000E+00  0.00000000E+00  0.00000000E+00
  0.00000000E+00  0.00000000E+00  0.00000000E+00
  0.00000000E+00  0.00000000E+00  0.00000000E+00
  0.00000000E+00  0.00000000E+00  0.00000000E+00
  0.00000000E+00  0.00000000E+00  0.00000000E+00
  0.00000000E+00  0.00000000E+00  0.00000000E+00
  0.00000000E+00  0.00000000E+00  0.00000000E+00
  0.00000000E+00  0.00000000E+00  0.00000000E+00
  0.00000000E+00  0.00000000E+00  0.00000000E+00
  0.00000000E+00  0.00000000E+00  0.00000000E+00
  0.00000000E+00  0.00000000E+00  0.00000000E+00
  0.00000000E+00  0.00000000E+00  0.00000000E+00
  0.00000000E+00  0.00000000E+00  0.00000000E+00
  0.00000000E+00  0.00000000E+00  0.00000000E+00
  0.00000000E+00  0.00000000E+00  0.00000000E+00
  0.00000000E+00  0.00000000E+00  0.00000000E+00
  0.00000000E+00  0.00000000E+00  0.00000000E+00
  0.00000000E+00  0.00000000E+00  0.00000000E+00
  0.00000000E+00  0.00000000E+00  0.00000000E+00
  0.00000000E+00  0.00000000E+00  0.00000000E+00
