step                                    
   1.00000000000000     
     8.4506998061999994    0.0000000000000000    0.0000000000000000
    -4.2253499030999997    7.3185207118999998    0.0000000000000000
     0.0000000000000000    0.0000000000000000   24.2000007629000002
   Ir   Pd   Pt   Rh   Ru   H 
    10     9     9    11     9     1
Direct
  0.9971026577990563  0.0050827186651163  0.1253089158210131
  0.1137188190939940  0.2113887147890752  0.2145378422797304
  0.5663106031796789  0.1209717861797009  0.0389579133921460
  0.2447663354979782  0.4542468071288678  0.0394880761229957
  0.5515945686122896  0.4405482563296944  0.0386618391222372
  0.3368610494184155  0.6720383074500726  0.1239102193640794
  0.3246854538093496  0.6778078754505971  0.3943442532462161
  0.5565832139044837  0.7782294107694604  0.0382484438645330
  0.6680629119044552  0.6688759111714259  0.1268902057749072
  0.8137959279624898  0.5699295187368060  0.4685968666082820
  0.2227539339238972  0.1165591255432157  0.0336660121306740
  0.2246848602249048  0.1097471531194349  0.3050918822776481
  0.7781542345146552  0.2245067966071518  0.2156352950208882
  0.0102500732041772  0.3351922790054955  0.4023465816723037
  0.1106399052501011  0.5572007359451707  0.2152429344778207
  0.3270683078145768  0.3222389849468665  0.4006293862041249
  0.8847671992286652  0.4402279040517502  0.0335252347482927
  0.8875902808716839  0.4473168184623960  0.3106691855599907
  0.2287782988290125  0.7792144761600510  0.0336240073699018
  0.3243964502269656 -0.0046672499489078  0.3996177818938912
  0.8905937662342669  0.1055089018594264  0.3086198633198224
  0.2183363358428148  0.4428360586649447  0.3072032132551886
  0.5617572233316244  0.4434906167569461  0.3067797828895550
  0.4444467364449347  0.5504554442274038  0.2137936386532862
  0.9973734963412374  0.6642356269602345  0.1261633990486525
  0.5571827862867703  0.7841268540395995  0.3048750130911153
  0.4532518286657800  0.8979982110175125  0.2138469089075035
  0.6382803368977005  0.6619944536394274  0.3977403927742007
  0.3400749042906790  0.0083785016400221  0.1275706357969670
  0.5595869505270570  0.1145221240134046  0.3074271808056011
  0.6467040238052352 -0.0037053924713177  0.4021149483180108
  0.8747033854851984  0.1024958275657016  0.0358406309850806
  0.0037152472072242  0.3273107109252467  0.1247608541674124
  0.2202148784924767  0.7777603477036351  0.3049358236991709
  0.1081842729451191  0.8925666977267023  0.2146046581889897
  0.8715043464320023  0.7777327286622030  0.0374491067618401
  0.8972562341061023  0.7808165599274797  0.3070240592854797
  0.8218813527902341  0.8999306582985386  0.4753862235048559
  0.7782158654677115  0.2551125477806240  0.4794892725416822
  0.0038082013270803  0.9831550854664918  0.3961059909349998
  0.4555686153753293  0.2335405915386258  0.2131518267009483
  0.6723824526883355  0.0006454270956873  0.1234706138580807
  0.3310271339942790  0.3233841659631341  0.1267844986746788
  0.6550368253097496  0.3305592294130409  0.1262083830267643
  0.6339452016605639  0.3006360953115229  0.3983215786084471
  0.7658397836906334  0.5556106844838979  0.2142695157128762
  0.0253042535056506  0.6836310913783400  0.3967117912123813
  0.7912249046794801  0.8875163796344530  0.2146632984140065
  0.8493033549038888  0.7362270772136258  0.5177340229107232
 
  0.00000000E+00  0.00000000E+00  0.00000000E+00
  0.00000000E+00  0.00000000E+00  0.00000000E+00
  0.00000000E+00  0.00000000E+00  0.00000000E+00
  0.00000000E+00  0.00000000E+00  0.00000000E+00
  0.00000000E+00  0.00000000E+00  0.00000000E+00
  0.00000000E+00  0.00000000E+00  0.00000000E+00
  0.00000000E+00  0.00000000E+00  0.00000000E+00
  0.00000000E+00  0.00000000E+00  0.00000000E+00
  0.00000000E+00  0.00000000E+00  0.00000000E+00
  0.00000000E+00  0.00000000E+00  0.00000000E+00
  0.00000000E+00  0.00000000E+00  0.00000000E+00
  0.00000000E+00  0.00000000E+00  0.00000000E+00
  0.00000000E+00  0.00000000E+00  0.00000000E+00
  0.00000000E+00  0.00000000E+00  0.00000000E+00
  0.00000000E+00  0.00000000E+00  0.00000000E+00
  0.00000000E+00  0.00000000E+00  0.00000000E+00
  0.00000000E+00  0.00000000E+00  0.00000000E+00
  0.00000000E+00  0.00000000E+00  0.00000000E+00
  0.00000000E+00  0.00000000E+00  0.00000000E+00
  0.00000000E+00  0.00000000E+00  0.00000000E+00
  0.00000000E+00  0.00000000E+00  0.00000000E+00
  0.00000000E+00  0.00000000E+00  0.00000000E+00
  0.00000000E+00  0.00000000E+00  0.00000000E+00
  0.00000000E+00  0.00000000E+00  0.00000000E+00
  0.00000000E+00  0.00000000E+00  0.00000000E+00
  0.00000000E+00  0.00000000E+00  0.00000000E+00
  0.00000000E+00  0.00000000E+00  0.00000000E+00
  0.00000000E+00  0.00000000E+00  0.00000000E+00
  0.00000000E+00  0.00000000E+00  0.00000000E+00
  0.00000000E+00  0.00000000E+00  0.00000000E+00
  0.00000000E+00  0.00000000E+00  0.00000000E+00
  0.00000000E+00  0.00000000E+00  0.00000000E+00
  0.00000000E+00  0.00000000E+00  0.00000000E+00
  0.00000000E+00  0.00000000E+00  0.00000000E+00
  0.00000000E+00  0.00000000E+00  0.00000000E+00
  0.00000000E+00  0.00000000E+00  0.00000000E+00
  0.00000000E+00  0.00000000E+00  0.00000000E+00
  0.00000000E+00  0.00000000E+00  0.00000000E+00
  0.00000000E+00  0.00000000E+00  0.00000000E+00
  0.00000000E+00  0.00000000E+00  0.00000000E+00
  0.00000000E+00  0.00000000E+00  0.00000000E+00
  0.00000000E+00  0.00000000E+00  0.00000000E+00
  0.00000000E+00  0.00000000E+00  0.00000000E+00
  0.00000000E+00  0.00000000E+00  0.00000000E+00
  0.00000000E+00  0.00000000E+00  0.00000000E+00
  0.00000000E+00  0.00000000E+00  0.00000000E+00
  0.00000000E+00  0.00000000E+00  0.00000000E+00
  0.00000000E+00  0.00000000E+00  0.00000000E+00
  0.00000000E+00  0.00000000E+00  0.00000000E+00
