5L_3x3_(1\1\1)                          
   1.00000000000000     
     8.4506998061999994    0.0000000000000000    0.0000000000000000
    -4.2253499030999997    7.3185207118999998    0.0000000000000000
     0.0000000000000000    0.0000000000000000   24.2000007629000002
   Ir   Pd   Pt   Rh   Ru   H 
     9     9     9     8     9     1
Direct
  0.9949699429650403  0.0039591502194104  0.1261846557499713
  0.1130653588245149  0.2114184483826618  0.2154255643961217
  0.5645769334979124  0.1197917208579529  0.0397932267596066
  0.2447569408506277  0.4543237310750383  0.0409198189227174
  0.5502436872896009  0.4391707471476868  0.0397491530081133
  0.3374321055321945  0.6736159474729000  0.1252692494945057
  0.3223043949411933  0.6617195134950322  0.3937731903799318
  0.5551276469084268  0.7785781954181916  0.0388043320130959
  0.6662079011265506  0.6692912516320186  0.1273649756373441
  0.2220930901964741  0.1169246320767380  0.0352090551759034
  0.2251225944545018  0.1090464292107284  0.3060355613153258
  0.7771508533608577  0.2204680581592039  0.2163691224686413
 -0.0007813745423831  0.3368550668637634  0.4018929256780449
  0.1111010653540467  0.5596402850238615  0.2155624395988172
  0.3307405328568152  0.3321202453769125  0.4005877674494337
  0.8836731348347672  0.4393094014369968  0.0341195481092206
  0.8871688887306631  0.4443210849776774  0.3073072528499084
  0.2287171918745121  0.7791496297448555  0.0342682842974225
  0.3371641043738670 -0.0018145003080234  0.3984787654330219
  0.8862927684842310  0.1017716972947816  0.3119363396116434
  0.2155759381986832  0.4387624574063450  0.3060486414052581
  0.5587512589997745  0.4435076841184734  0.3052460292245899
  0.4461733673459295  0.5521352108762659  0.2147173462213775
  0.9967975092192664  0.6640236356048488  0.1262000371804768
  0.5580124363720678  0.7891775403393114  0.3087111605841410
  0.4498454833722659  0.8971926175076539  0.2167733748236518
  0.6645334970649008  0.6680092933135880  0.3975383914253466
  0.3411724092221204  0.0071583702345339  0.1291687363357824
  0.5636097466638458  0.1130925643096076  0.3124453896830338
  0.8755569634567572  0.1022953571929649  0.0371824244835271
  0.0031711307623463  0.3276659072406769  0.1254374436118543
  0.2218224422369998  0.7782091548277111  0.3084043766977965
  0.1041837507569101  0.8910234587237847  0.2147755355631358
  0.8694589759004899  0.7764387982603741  0.0379877915536290
  0.8922778911968748  0.7782639073307351  0.3062440050478995
  0.0061080580456287  0.9684330891045519  0.3945852485881956
  0.4554320257499867  0.2328683174360933  0.2147276048893388
  0.6705555224857526  0.0003578419782428  0.1245160260661997
  0.3323328983942408  0.3229095297376786  0.1286484199778577
  0.6542923128736944  0.3279072667914944  0.1269645200384991
  0.6561345269065453  0.3406484085482525  0.3951740847450719
  0.7669271449483445  0.5550110560016364  0.2138696017663944
  0.0097566983119862  0.6789042397515559  0.3952553052448829
  0.7888173547000468  0.8857737226851583  0.2153964008780816
  0.8787947758534618  0.4529549340910106  0.4320893285933178
 
  0.00000000E+00  0.00000000E+00  0.00000000E+00
  0.00000000E+00  0.00000000E+00  0.00000000E+00
  0.00000000E+00  0.00000000E+00  0.00000000E+00
  0.00000000E+00  0.00000000E+00  0.00000000E+00
  0.00000000E+00  0.00000000E+00  0.00000000E+00
  0.00000000E+00  0.00000000E+00  0.00000000E+00
  0.00000000E+00  0.00000000E+00  0.00000000E+00
  0.00000000E+00  0.00000000E+00  0.00000000E+00
  0.00000000E+00  0.00000000E+00  0.00000000E+00
  0.00000000E+00  0.00000000E+00  0.00000000E+00
  0.00000000E+00  0.00000000E+00  0.00000000E+00
  0.00000000E+00  0.00000000E+00  0.00000000E+00
  0.00000000E+00  0.00000000E+00  0.00000000E+00
  0.00000000E+00  0.00000000E+00  0.00000000E+00
  0.00000000E+00  0.00000000E+00  0.00000000E+00
  0.00000000E+00  0.00000000E+00  0.00000000E+00
  0.00000000E+00  0.00000000E+00  0.00000000E+00
  0.00000000E+00  0.00000000E+00  0.00000000E+00
  0.00000000E+00  0.00000000E+00  0.00000000E+00
  0.00000000E+00  0.00000000E+00  0.00000000E+00
  0.00000000E+00  0.00000000E+00  0.00000000E+00
  0.00000000E+00  0.00000000E+00  0.00000000E+00
  0.00000000E+00  0.00000000E+00  0.00000000E+00
  0.00000000E+00  0.00000000E+00  0.00000000E+00
  0.00000000E+00  0.00000000E+00  0.00000000E+00
  0.00000000E+00  0.00000000E+00  0.00000000E+00
  0.00000000E+00  0.00000000E+00  0.00000000E+00
  0.00000000E+00  0.00000000E+00  0.00000000E+00
  0.00000000E+00  0.00000000E+00  0.00000000E+00
  0.00000000E+00  0.00000000E+00  0.00000000E+00
  0.00000000E+00  0.00000000E+00  0.00000000E+00
  0.00000000E+00  0.00000000E+00  0.00000000E+00
  0.00000000E+00  0.00000000E+00  0.00000000E+00
  0.00000000E+00  0.00000000E+00  0.00000000E+00
  0.00000000E+00  0.00000000E+00  0.00000000E+00
  0.00000000E+00  0.00000000E+00  0.00000000E+00
  0.00000000E+00  0.00000000E+00  0.00000000E+00
  0.00000000E+00  0.00000000E+00  0.00000000E+00
  0.00000000E+00  0.00000000E+00  0.00000000E+00
  0.00000000E+00  0.00000000E+00  0.00000000E+00
  0.00000000E+00  0.00000000E+00  0.00000000E+00
  0.00000000E+00  0.00000000E+00  0.00000000E+00
  0.00000000E+00  0.00000000E+00  0.00000000E+00
  0.00000000E+00  0.00000000E+00  0.00000000E+00
  0.00000000E+00  0.00000000E+00  0.00000000E+00
