5L_3x3_(1\1\1)                          
   1.00000000000000     
     8.4506998061999994    0.0000000000000000    0.0000000000000000
    -4.2253499030999997    7.3185207118999998    0.0000000000000000
     0.0000000000000000    0.0000000000000000   24.2000007629000002
   Ir   Pd   Pt   Rh   Ru   H 
     9     9     8     9     9     1
Direct
  0.5580545929040399  0.1084188313459984  0.0400544372224536
  0.5440925763921396  0.1037048323392098  0.3091137880447410
  0.7779355287243389  0.2328455187450268  0.2179338518920428
  0.0065597395291079  0.3577198953910779  0.3916646735260413
  0.3266877885486846  0.3312721546433208  0.1268059542225994
  0.8863527275191350  0.4621968053716791  0.3073246171856099
  0.9985831516827776  0.6588612253742865  0.1258951440992347
  0.3347924084004695  0.6544476455067377  0.3911933258845098
  0.8908690528297156  0.7774940741355536  0.3078330306729412
  0.0014233520382265  0.0100947410958579  0.3970632711849262
  0.2270094662934067  0.1151838517509138  0.0322576878803630
  0.3450372454272492  0.0176934048340894  0.4005554978171496
  0.6582944063699957  0.9916171207370503  0.4006072906036272
  0.2277159072787857  0.4453285827041332  0.3030280582355633
  0.8901046408076576  0.4430128080024496  0.0332496759068040
  0.1073224271533508  0.8833354014053095  0.2163531762258760
  0.4488240339289601  0.8887462073741822  0.2177618635445226
  0.7767345018568036  0.8903380092202093  0.2167707642676080
  0.0044726231830099  0.0055927336820180  0.1263161279359308
  0.8855430649028483  0.1089603661330431  0.3060692197728557
  0.1046674544520432  0.5476096653303087  0.2161370728652052
  0.3351495580576697  0.6677097678612604  0.1282368998665234
  0.5578030853784560  0.7839874447406494  0.0359128549938317
  0.6679772729873188  0.6654915899167950  0.1281778313632844
  0.6512973560916607  0.6484620334554186  0.3959924137808661
  0.8887373820287682  0.7732609816092595  0.0361196419343129
  0.3371110048811444  0.0040047522506103  0.1261436225629746
  0.4436706581358277  0.2292240033934977  0.2182088240902101
  0.8825600340617572  0.1183533991821671  0.0385805586432857
  0.3211151490912134  0.3333188720731753  0.3940501759717819
  0.5454171583134281  0.4381635401954072  0.0382900901398626
  0.5596290661373416  0.4351614900465634  0.3066890664253547
  0.6680918071044059  0.3298901256243740  0.1279594335163376
  0.2279907964150430  0.7754188784443884  0.0380351234096247
  0.2143681662982440  0.7843031955670986  0.3120050740366504
  0.2202535546680824  0.0994037406067172  0.3062038935846830
  0.1269238043886307  0.2327585811775888  0.2166838655265720
  0.6776091278312568  0.0218041981770674  0.1272582667598763
  0.9982534136138196  0.3242474059037721  0.1264758859835560
  0.2261976875640353  0.4457269840172376  0.0418422846073565
  0.4521966282877692  0.5450628525151733  0.2173456002962177
  0.7023041085073986  0.3366999239116031  0.3940051414163279
  0.7667970028339564  0.5445438359389900  0.2166849757462236
  0.5608338844356791  0.7780147005384497  0.3072927354584852
  0.7370138514736275  0.5339222121954217  0.4347745054189956
 
  0.00000000E+00  0.00000000E+00  0.00000000E+00
  0.00000000E+00  0.00000000E+00  0.00000000E+00
  0.00000000E+00  0.00000000E+00  0.00000000E+00
  0.00000000E+00  0.00000000E+00  0.00000000E+00
  0.00000000E+00  0.00000000E+00  0.00000000E+00
  0.00000000E+00  0.00000000E+00  0.00000000E+00
  0.00000000E+00  0.00000000E+00  0.00000000E+00
  0.00000000E+00  0.00000000E+00  0.00000000E+00
  0.00000000E+00  0.00000000E+00  0.00000000E+00
  0.00000000E+00  0.00000000E+00  0.00000000E+00
  0.00000000E+00  0.00000000E+00  0.00000000E+00
  0.00000000E+00  0.00000000E+00  0.00000000E+00
  0.00000000E+00  0.00000000E+00  0.00000000E+00
  0.00000000E+00  0.00000000E+00  0.00000000E+00
  0.00000000E+00  0.00000000E+00  0.00000000E+00
  0.00000000E+00  0.00000000E+00  0.00000000E+00
  0.00000000E+00  0.00000000E+00  0.00000000E+00
  0.00000000E+00  0.00000000E+00  0.00000000E+00
  0.00000000E+00  0.00000000E+00  0.00000000E+00
  0.00000000E+00  0.00000000E+00  0.00000000E+00
  0.00000000E+00  0.00000000E+00  0.00000000E+00
  0.00000000E+00  0.00000000E+00  0.00000000E+00
  0.00000000E+00  0.00000000E+00  0.00000000E+00
  0.00000000E+00  0.00000000E+00  0.00000000E+00
  0.00000000E+00  0.00000000E+00  0.00000000E+00
  0.00000000E+00  0.00000000E+00  0.00000000E+00
  0.00000000E+00  0.00000000E+00  0.00000000E+00
  0.00000000E+00  0.00000000E+00  0.00000000E+00
  0.00000000E+00  0.00000000E+00  0.00000000E+00
  0.00000000E+00  0.00000000E+00  0.00000000E+00
  0.00000000E+00  0.00000000E+00  0.00000000E+00
  0.00000000E+00  0.00000000E+00  0.00000000E+00
  0.00000000E+00  0.00000000E+00  0.00000000E+00
  0.00000000E+00  0.00000000E+00  0.00000000E+00
  0.00000000E+00  0.00000000E+00  0.00000000E+00
  0.00000000E+00  0.00000000E+00  0.00000000E+00
  0.00000000E+00  0.00000000E+00  0.00000000E+00
  0.00000000E+00  0.00000000E+00  0.00000000E+00
  0.00000000E+00  0.00000000E+00  0.00000000E+00
  0.00000000E+00  0.00000000E+00  0.00000000E+00
  0.00000000E+00  0.00000000E+00  0.00000000E+00
  0.00000000E+00  0.00000000E+00  0.00000000E+00
  0.00000000E+00  0.00000000E+00  0.00000000E+00
  0.00000000E+00  0.00000000E+00  0.00000000E+00
  0.00000000E+00  0.00000000E+00  0.00000000E+00
