fRu1Pt1Ru2                              
   1.00000000000000     
     8.4506998061999994    0.0000000000000000    0.0000000000000000
    -4.2253499030999997    7.3185207118999998    0.0000000000000000
     0.0000000000000000    0.0000000000000000   24.2000007629000002
   Ir   Pd   Pt   Rh   Ru   H 
     9     9     9     9     9     1
Direct
  0.9965828723438609  0.0043441400656191  0.1260669937240252
  0.1116053103886736  0.2099781983977529  0.2153202120788865
  0.5650190012664110  0.1202434067624987  0.0396971892362643
  0.2430656586102843  0.4530946984934549  0.0404086109901759
  0.5504611244664832  0.4397275648040118  0.0392895199845434
  0.3374704391435656  0.6710765690816100  0.1251396389167861
  0.3292147924536536  0.6758029229965765  0.3952065652186582
  0.5559694110723098  0.7775442560424142  0.0386544090264450
  0.6659021502267114  0.6685746352661135  0.1276374138816154
  0.2221633337824092  0.1155209440680405  0.0344954456682065
  0.2235769702852362  0.1090391227035180  0.3062949508538109
  0.7755414404435845  0.2219976851420804  0.2156821333298160
  0.9983246617405381  0.3359427180847037  0.4031289249868891
  0.1116933751727549  0.5578939221400658  0.2160026113164835
  0.3335666105304164  0.3317050180825789  0.4008539767323465
  0.8842413272139799  0.4400396098378050  0.0342079672216273
  0.8904027060241572  0.4467703955124352  0.3080658609166977
  0.2287509788849522  0.7786029018985722  0.0344021931538943
  0.3317941059172317 -0.0004274576900458  0.4000898211691516
  0.8910034307594445  0.1090751787203753  0.3084938674584862
  0.2200515157686007  0.4430423831773193  0.3078483055745459
  0.5608581314811776  0.4409782052088609  0.3066186651757590
  0.4461985629052117  0.5501587180673150  0.2154239103935347
  0.9969181269015776  0.6634337884277409  0.1265551305367074
  0.5586671256487699  0.7802011918761531  0.3058219850901482
  0.4494194400455730  0.8958707490561012  0.2157493886653424
  0.6672410244963095  0.6697787944886615  0.4001755858058285
  0.3403627871972881  0.0073530987738736  0.1288576120427596
  0.5556890767480303  0.1122458872989336  0.3096438648369103
  0.6628333006484673  0.9978658947960416  0.3973087009631922
  0.8751010190155223  0.1019078868109454  0.0367781589884744
  0.0032448979759806  0.3270681590611734  0.1254542933705091
  0.2213788910660152  0.7791640374550167  0.3081590325726642
  0.1051734004879596  0.8901039273774171  0.2150730467953492
  0.8703161035597476  0.7764615764839382  0.0381487256540293
  0.8953381287441352  0.7781355446997547  0.3064884216458553
  0.9956690043200647  0.9794447188992065  0.3944369330078827
  0.4540273599357340  0.2320809120031352  0.2145152488891431
  0.6696221083760115 -0.0005079218523614  0.1237807680394879
  0.3319681801056709  0.3246796816187025  0.1275822510713639
  0.6530118367374743  0.3290919425145271  0.1268205875783319
  0.6648985668667914  0.3241221505526948  0.3952017570618218
  0.7670175320531309  0.5549573451599921  0.2141699982063114
  0.0082053270829540  0.6815026437822400  0.3944777022353759
  0.7912655949321562  0.8886221959025477  0.2154623310326879
  0.7731929751729733  0.5575296449498780  0.4341292979011737
 
  0.00000000E+00  0.00000000E+00  0.00000000E+00
  0.00000000E+00  0.00000000E+00  0.00000000E+00
  0.00000000E+00  0.00000000E+00  0.00000000E+00
  0.00000000E+00  0.00000000E+00  0.00000000E+00
  0.00000000E+00  0.00000000E+00  0.00000000E+00
  0.00000000E+00  0.00000000E+00  0.00000000E+00
  0.00000000E+00  0.00000000E+00  0.00000000E+00
  0.00000000E+00  0.00000000E+00  0.00000000E+00
  0.00000000E+00  0.00000000E+00  0.00000000E+00
  0.00000000E+00  0.00000000E+00  0.00000000E+00
  0.00000000E+00  0.00000000E+00  0.00000000E+00
  0.00000000E+00  0.00000000E+00  0.00000000E+00
  0.00000000E+00  0.00000000E+00  0.00000000E+00
  0.00000000E+00  0.00000000E+00  0.00000000E+00
  0.00000000E+00  0.00000000E+00  0.00000000E+00
  0.00000000E+00  0.00000000E+00  0.00000000E+00
  0.00000000E+00  0.00000000E+00  0.00000000E+00
  0.00000000E+00  0.00000000E+00  0.00000000E+00
  0.00000000E+00  0.00000000E+00  0.00000000E+00
  0.00000000E+00  0.00000000E+00  0.00000000E+00
  0.00000000E+00  0.00000000E+00  0.00000000E+00
  0.00000000E+00  0.00000000E+00  0.00000000E+00
  0.00000000E+00  0.00000000E+00  0.00000000E+00
  0.00000000E+00  0.00000000E+00  0.00000000E+00
  0.00000000E+00  0.00000000E+00  0.00000000E+00
  0.00000000E+00  0.00000000E+00  0.00000000E+00
  0.00000000E+00  0.00000000E+00  0.00000000E+00
  0.00000000E+00  0.00000000E+00  0.00000000E+00
  0.00000000E+00  0.00000000E+00  0.00000000E+00
  0.00000000E+00  0.00000000E+00  0.00000000E+00
  0.00000000E+00  0.00000000E+00  0.00000000E+00
  0.00000000E+00  0.00000000E+00  0.00000000E+00
  0.00000000E+00  0.00000000E+00  0.00000000E+00
  0.00000000E+00  0.00000000E+00  0.00000000E+00
  0.00000000E+00  0.00000000E+00  0.00000000E+00
  0.00000000E+00  0.00000000E+00  0.00000000E+00
  0.00000000E+00  0.00000000E+00  0.00000000E+00
  0.00000000E+00  0.00000000E+00  0.00000000E+00
  0.00000000E+00  0.00000000E+00  0.00000000E+00
  0.00000000E+00  0.00000000E+00  0.00000000E+00
  0.00000000E+00  0.00000000E+00  0.00000000E+00
  0.00000000E+00  0.00000000E+00  0.00000000E+00
  0.00000000E+00  0.00000000E+00  0.00000000E+00
  0.00000000E+00  0.00000000E+00  0.00000000E+00
  0.00000000E+00  0.00000000E+00  0.00000000E+00
  0.00000000E+00  0.00000000E+00  0.00000000E+00
