step                                    
   1.00000000000000     
     8.4506998061999994    0.0000000000000000    0.0000000000000000
    -4.2253499030999997    7.3185207118999998    0.0000000000000000
     0.0000000000000000    0.0000000000000000   24.2000007629000002
   Ir   Pd   Pt   Rh   Ru   H 
    10     9     9    11     9     1
Direct
  0.9967599658471531  0.0045752869260720  0.1268377654738443
  0.1117067242318145  0.2107868262170118  0.2163047564992746
  0.5658124337488339  0.1205175621126571  0.0404358176810795
  0.2437651022612249  0.4537304549479645  0.0410059679604182
  0.5507130614021399  0.4401166430218388  0.0401625170951489
  0.3353868832210019  0.6712850963341974  0.1252264237561586
  0.3248779053100191  0.6802094832370711  0.3958922566217295
  0.5556859491126438  0.7781844288729626  0.0396362744099730
  0.6660952053856375  0.6675973258257821  0.1283652550744883
  0.8103965751354997  0.5683284471389582  0.4682802134024323
  0.2221237546519193  0.1162252729997350  0.0350423532010822
  0.2217157716609406  0.1083319520922177  0.3078472083234548
  0.7757945756200396  0.2237256489192455  0.2170113695247092
  0.0063417450973219  0.3361921439854974  0.4038178146263602
  0.1093035393856044  0.5563570607740355  0.2166172111771941
  0.3292255602722033  0.3272266024861951  0.4040130594169477
  0.8838759237951515  0.4398368425963620  0.0352268318121093
  0.8871367143466904  0.4477702183110217  0.3113705013714654
  0.2276002340613934  0.7787352398910895  0.0350343075334135
  0.3296504949734435 -0.0037998531373909  0.4032857748557392
  0.8893572797010104  0.1065499936176562  0.3096951750197131
  0.2187149448516811  0.4432816869961319  0.3090961564480349
  0.5599965245619624  0.4415987865059007  0.3084041897459801
  0.4422130355815528  0.5494370907492037  0.2151984874623698
  0.9959903688972501  0.6641776439034340  0.1277806888313869
  0.5559889412728376  0.7843350498528916  0.3058308257851083
  0.4519861596642425  0.8965225698462854  0.2149404361543541
  0.6371073532298542  0.6635825858534806  0.3982966285177489
  0.3388846705236875  0.0078324829233877  0.1288914757271702
  0.5553780031641197  0.1122680889426673  0.3092073382686217
  0.6557823137113419  0.9970132724338847  0.4040012754068418
  0.8741628755497169  0.1021107174408799  0.0373326478369520
  0.0026273603425494  0.3263123833417846  0.1263349100628432
  0.2206570352164542  0.7784891913540014  0.3063062707014126
  0.1071216560934040  0.8925610599420800  0.2164761599851613
  0.8701817760568513  0.7769105434015341  0.0390158824377222
  0.8959463565810993  0.7785737346803442  0.3080731886694409
  0.8108837009576815  0.8686260025254426  0.4811103964078723
  0.7768215605208300  0.2604551034597260  0.4827926537428368
 -0.0102818568432726  0.9822582939269784  0.3995082470702543
  0.4528791686228860  0.2316291783444358  0.2147524771238866
  0.6715904197293880  0.0005310791286332  0.1248223699906342
  0.3298360518418429  0.3226739783425205  0.1283561064843844
  0.6534209068660805  0.3302325790330684  0.1279105417694411
  0.6431345439014242  0.3028134950197352  0.3988886127326963
  0.7645104795501352  0.5555519686831691  0.2157488558327989
  0.0240260370026273  0.6867654601572085  0.3975583155216851
  0.7897253605554537  0.8874768683520826  0.2159199686002341
  0.2072686227746153  0.0964260446889210  0.4383760408453877
 
  0.00000000E+00  0.00000000E+00  0.00000000E+00
  0.00000000E+00  0.00000000E+00  0.00000000E+00
  0.00000000E+00  0.00000000E+00  0.00000000E+00
  0.00000000E+00  0.00000000E+00  0.00000000E+00
  0.00000000E+00  0.00000000E+00  0.00000000E+00
  0.00000000E+00  0.00000000E+00  0.00000000E+00
  0.00000000E+00  0.00000000E+00  0.00000000E+00
  0.00000000E+00  0.00000000E+00  0.00000000E+00
  0.00000000E+00  0.00000000E+00  0.00000000E+00
  0.00000000E+00  0.00000000E+00  0.00000000E+00
  0.00000000E+00  0.00000000E+00  0.00000000E+00
  0.00000000E+00  0.00000000E+00  0.00000000E+00
  0.00000000E+00  0.00000000E+00  0.00000000E+00
  0.00000000E+00  0.00000000E+00  0.00000000E+00
  0.00000000E+00  0.00000000E+00  0.00000000E+00
  0.00000000E+00  0.00000000E+00  0.00000000E+00
  0.00000000E+00  0.00000000E+00  0.00000000E+00
  0.00000000E+00  0.00000000E+00  0.00000000E+00
  0.00000000E+00  0.00000000E+00  0.00000000E+00
  0.00000000E+00  0.00000000E+00  0.00000000E+00
  0.00000000E+00  0.00000000E+00  0.00000000E+00
  0.00000000E+00  0.00000000E+00  0.00000000E+00
  0.00000000E+00  0.00000000E+00  0.00000000E+00
  0.00000000E+00  0.00000000E+00  0.00000000E+00
  0.00000000E+00  0.00000000E+00  0.00000000E+00
  0.00000000E+00  0.00000000E+00  0.00000000E+00
  0.00000000E+00  0.00000000E+00  0.00000000E+00
  0.00000000E+00  0.00000000E+00  0.00000000E+00
  0.00000000E+00  0.00000000E+00  0.00000000E+00
  0.00000000E+00  0.00000000E+00  0.00000000E+00
  0.00000000E+00  0.00000000E+00  0.00000000E+00
  0.00000000E+00  0.00000000E+00  0.00000000E+00
  0.00000000E+00  0.00000000E+00  0.00000000E+00
  0.00000000E+00  0.00000000E+00  0.00000000E+00
  0.00000000E+00  0.00000000E+00  0.00000000E+00
  0.00000000E+00  0.00000000E+00  0.00000000E+00
  0.00000000E+00  0.00000000E+00  0.00000000E+00
  0.00000000E+00  0.00000000E+00  0.00000000E+00
  0.00000000E+00  0.00000000E+00  0.00000000E+00
  0.00000000E+00  0.00000000E+00  0.00000000E+00
  0.00000000E+00  0.00000000E+00  0.00000000E+00
  0.00000000E+00  0.00000000E+00  0.00000000E+00
  0.00000000E+00  0.00000000E+00  0.00000000E+00
  0.00000000E+00  0.00000000E+00  0.00000000E+00
  0.00000000E+00  0.00000000E+00  0.00000000E+00
  0.00000000E+00  0.00000000E+00  0.00000000E+00
  0.00000000E+00  0.00000000E+00  0.00000000E+00
  0.00000000E+00  0.00000000E+00  0.00000000E+00
  0.00000000E+00  0.00000000E+00  0.00000000E+00
