step                                    
   1.00000000000000     
     8.4506998061999994    0.0000000000000000    0.0000000000000000
    -4.2253499030999997    7.3185207118999998    0.0000000000000000
     0.0000000000000000    0.0000000000000000   24.2000007629000002
   Ir   Pd   Pt   Rh   Ru   H 
    10     9    10    10     9     1
Direct
  0.9921374534583896  0.0052503923463857  0.1262583927655583
  0.1104007268912976  0.2125291033953889  0.2151198114585727
  0.5626731308540320  0.1223061745748369  0.0396371772637319
  0.2415307398327226  0.4550988496746990  0.0403793596621241
  0.5481647038030502  0.4409956368971750  0.0395238870600426
  0.3344331109000329  0.6733124456306958  0.1249454371378453
  0.3168469215247295  0.6762848655990374  0.3947279242056563
  0.5537402653846314  0.7781963012189939  0.0387909988035032
  0.6650784046714194  0.6711738337863755  0.1275536719684090
  0.8192091856465522  0.9204773890613108  0.4698449960317133
  0.2193830612036530  0.1172164388401654  0.0345579492328605
  0.2222055795593487  0.1119687544936285  0.3049153350002029
  0.7741631583048444  0.2233592894009045  0.2161574609665107
  0.0060869782836605  0.3466523241598455  0.4027798631861020
  0.1085280051432004  0.5592292729962550  0.2158150458372952
  0.3202852068350893  0.3189685080408307  0.4012462302854163
  0.8818108021582897  0.4415875948194597  0.0342001541607362
  0.8855698096947017  0.4483982627464485  0.3081484887843172
  0.2264326813718867  0.7801372033227271  0.0344297968028044
  0.3206733660446139 -0.0025606815038214  0.4001767642631928
  0.8860708577573829  0.1063407847205486  0.3109485308808340
  0.2152868823002539  0.4440562636451887  0.3076158719900721
  0.5578145948386032  0.4408610017745471  0.3069228471762120
  0.4413214737939182  0.5504728580101169  0.2145432492236789
  0.9944405986115891  0.6652324737174382  0.1268029349277456
  0.5521248444351281  0.7839833124087766  0.3064201677594939
  0.4489819600199952  0.8978431874527949  0.2154291714377533
  0.6281544524876395  0.6508822207204221  0.3981689307480303
  0.7984041760955857  0.5982243682589906  0.4810637192471922
  0.3369944091657702  0.0085175878229212  0.1285792277408970
  0.5544435192299245  0.1166639164569682  0.3094417800850127
  0.6314335794861579  0.9925521823605969  0.4001755981089309
  0.8715047321021284  0.1036200707219979  0.0365689155642922
 -0.0000852434882177  0.3279381479101740  0.1253812411682331
  0.2124550643648757  0.7800283943043886  0.3070041199082739
  0.1032497400875790  0.8928934570457846  0.2152987800366772
  0.8685999449760541  0.7780120332660785  0.0381441544329199
  0.8910461577143634  0.7827167833751371  0.3081947051902238
  0.7797328746015406  0.1965164150063962  0.4820675389858332
  0.0122540914219266  0.9876267206274337  0.3963745397110718
  0.4522377369011632  0.2346408149627269  0.2137368277059825
  0.6684602838236602  0.0014456413024295  0.1238059332334075
  0.3270253800552107  0.3229550192672082  0.1273675723535115
  0.6520238133569618  0.3307095248332803  0.1270938822400323
  0.6657780237992965  0.3322858578648689  0.4006302775959377
  0.7626366914104019  0.5549241486966571  0.2142002479003827
  0.0046002829430807  0.6728828365110421  0.3964325642331954
  0.7865371448946938  0.8870936790839884  0.2160259820011229
  0.6711283692471731  0.3474979503697486  0.4783919465364517
 
  0.00000000E+00  0.00000000E+00  0.00000000E+00
  0.00000000E+00  0.00000000E+00  0.00000000E+00
  0.00000000E+00  0.00000000E+00  0.00000000E+00
  0.00000000E+00  0.00000000E+00  0.00000000E+00
  0.00000000E+00  0.00000000E+00  0.00000000E+00
  0.00000000E+00  0.00000000E+00  0.00000000E+00
  0.00000000E+00  0.00000000E+00  0.00000000E+00
  0.00000000E+00  0.00000000E+00  0.00000000E+00
  0.00000000E+00  0.00000000E+00  0.00000000E+00
  0.00000000E+00  0.00000000E+00  0.00000000E+00
  0.00000000E+00  0.00000000E+00  0.00000000E+00
  0.00000000E+00  0.00000000E+00  0.00000000E+00
  0.00000000E+00  0.00000000E+00  0.00000000E+00
  0.00000000E+00  0.00000000E+00  0.00000000E+00
  0.00000000E+00  0.00000000E+00  0.00000000E+00
  0.00000000E+00  0.00000000E+00  0.00000000E+00
  0.00000000E+00  0.00000000E+00  0.00000000E+00
  0.00000000E+00  0.00000000E+00  0.00000000E+00
  0.00000000E+00  0.00000000E+00  0.00000000E+00
  0.00000000E+00  0.00000000E+00  0.00000000E+00
  0.00000000E+00  0.00000000E+00  0.00000000E+00
  0.00000000E+00  0.00000000E+00  0.00000000E+00
  0.00000000E+00  0.00000000E+00  0.00000000E+00
  0.00000000E+00  0.00000000E+00  0.00000000E+00
  0.00000000E+00  0.00000000E+00  0.00000000E+00
  0.00000000E+00  0.00000000E+00  0.00000000E+00
  0.00000000E+00  0.00000000E+00  0.00000000E+00
  0.00000000E+00  0.00000000E+00  0.00000000E+00
  0.00000000E+00  0.00000000E+00  0.00000000E+00
  0.00000000E+00  0.00000000E+00  0.00000000E+00
  0.00000000E+00  0.00000000E+00  0.00000000E+00
  0.00000000E+00  0.00000000E+00  0.00000000E+00
  0.00000000E+00  0.00000000E+00  0.00000000E+00
  0.00000000E+00  0.00000000E+00  0.00000000E+00
  0.00000000E+00  0.00000000E+00  0.00000000E+00
  0.00000000E+00  0.00000000E+00  0.00000000E+00
  0.00000000E+00  0.00000000E+00  0.00000000E+00
  0.00000000E+00  0.00000000E+00  0.00000000E+00
  0.00000000E+00  0.00000000E+00  0.00000000E+00
  0.00000000E+00  0.00000000E+00  0.00000000E+00
  0.00000000E+00  0.00000000E+00  0.00000000E+00
  0.00000000E+00  0.00000000E+00  0.00000000E+00
  0.00000000E+00  0.00000000E+00  0.00000000E+00
  0.00000000E+00  0.00000000E+00  0.00000000E+00
  0.00000000E+00  0.00000000E+00  0.00000000E+00
  0.00000000E+00  0.00000000E+00  0.00000000E+00
  0.00000000E+00  0.00000000E+00  0.00000000E+00
  0.00000000E+00  0.00000000E+00  0.00000000E+00
  0.00000000E+00  0.00000000E+00  0.00000000E+00
