5L_3x3_(1\1\1)                          
   1.00000000000000     
     8.4506998061999994    0.0000000000000000    0.0000000000000000
    -4.2253499030999997    7.3185207118999998    0.0000000000000000
     0.0000000000000000    0.0000000000000000   24.2000007629000002
   Ir   Pd   Pt   Rh   Ru   H 
     9     9     8     9     9     1
Direct
  0.9967413938221154  0.0041936130936495  0.1259059105857772
  0.1101257538049879  0.2117748328223268  0.2153950737065818
  0.5646766745935199  0.1201129380473592  0.0396671113908119
  0.2429760471347934  0.4531410937411248  0.0408861628745729
  0.5502431399495895  0.4400854736938754  0.0391125374046540
  0.3385017433093074  0.6734797249129807  0.1254094987168719
  0.3170434791214786  0.6694987502704145  0.3939157069986967
  0.5557783355528424  0.7774590529380568  0.0384011190055358
  0.6646811914423021  0.6681194718189484  0.1271923223796610
  0.2227012576038782  0.1156679322861348  0.0346126361146254
  0.2236008417458430  0.1042023659977736  0.3105114242750328
  0.7751771085840100  0.2230439834934236  0.2151555361847742
  0.9926966802517276  0.3220228794989139  0.4017400219316583
  0.1146740779359326  0.5612950192015397  0.2151989307601798
  0.3333567804321321  0.3354146167097231  0.4002949507202745
  0.8834950859415307  0.4396530988092778  0.0345204227448346
  0.8955574633516009  0.4481339861058280  0.3044314847419225
  0.2290929155616835  0.7790467808383806  0.0343573378863772
  0.8883247635972000  0.1078984115339981  0.3061224794746680
  0.2201076585828264  0.4394187950809811  0.3069923711748584
  0.5621325436016531  0.4400486893123696  0.3061270335844523
  0.4471111455945231  0.5513892624636676  0.2153469963450672
  0.9977575512402103  0.6655358548743513  0.1264142276753396
  0.5547898334987561  0.7796172229285228  0.3060739234703926
  0.4488675638852322  0.8992427591834885  0.2166817373902717
  0.6679213366021574  0.6622825533789624  0.4018924696937696
  0.3397812241946054  0.0073929591003147  0.1290896439871660
  0.5526741780672183  0.1119017259978564  0.3143290046851823
  0.6639810382384477  0.9859623605823765  0.3966305783711880
  0.8758957022843328  0.1034253486246345  0.0370800294471859
  0.0031564632347159  0.3273982907663406  0.1252546197967301
  0.2285909774875507  0.7915981604803815  0.3115838624009510
  0.1046516882123479  0.8923046216217998  0.2155654048799898
  0.8694030724129884  0.7760733774900116  0.0379419022776567
  0.8953058758338113  0.7788627166257526  0.3063770862987714
  0.9733082665376387  0.9765081432277334  0.3935784699857427
  0.4505710283824161  0.2312572389816692  0.2147526281363272
  0.6690067677066130 -0.0000780515303600  0.1238596509570857
  0.3321635439377864  0.3241618745359702  0.1278830507361240
  0.6512747528207125  0.3285766543066060  0.1270662743187668
  0.6883373227397817  0.3500930479456292  0.3940479280915505
  0.7669400156011271  0.5554252118475249  0.2133837142516328
  0.0015013587624973  0.6648546438360645  0.3922101852772190
  0.7897624017123885  0.8888531361093197  0.2145724547414605
  0.5641766224870273  0.4362706489654918  0.4363089130350277
 
  0.00000000E+00  0.00000000E+00  0.00000000E+00
  0.00000000E+00  0.00000000E+00  0.00000000E+00
  0.00000000E+00  0.00000000E+00  0.00000000E+00
  0.00000000E+00  0.00000000E+00  0.00000000E+00
  0.00000000E+00  0.00000000E+00  0.00000000E+00
  0.00000000E+00  0.00000000E+00  0.00000000E+00
  0.00000000E+00  0.00000000E+00  0.00000000E+00
  0.00000000E+00  0.00000000E+00  0.00000000E+00
  0.00000000E+00  0.00000000E+00  0.00000000E+00
  0.00000000E+00  0.00000000E+00  0.00000000E+00
  0.00000000E+00  0.00000000E+00  0.00000000E+00
  0.00000000E+00  0.00000000E+00  0.00000000E+00
  0.00000000E+00  0.00000000E+00  0.00000000E+00
  0.00000000E+00  0.00000000E+00  0.00000000E+00
  0.00000000E+00  0.00000000E+00  0.00000000E+00
  0.00000000E+00  0.00000000E+00  0.00000000E+00
  0.00000000E+00  0.00000000E+00  0.00000000E+00
  0.00000000E+00  0.00000000E+00  0.00000000E+00
  0.00000000E+00  0.00000000E+00  0.00000000E+00
  0.00000000E+00  0.00000000E+00  0.00000000E+00
  0.00000000E+00  0.00000000E+00  0.00000000E+00
  0.00000000E+00  0.00000000E+00  0.00000000E+00
  0.00000000E+00  0.00000000E+00  0.00000000E+00
  0.00000000E+00  0.00000000E+00  0.00000000E+00
  0.00000000E+00  0.00000000E+00  0.00000000E+00
  0.00000000E+00  0.00000000E+00  0.00000000E+00
  0.00000000E+00  0.00000000E+00  0.00000000E+00
  0.00000000E+00  0.00000000E+00  0.00000000E+00
  0.00000000E+00  0.00000000E+00  0.00000000E+00
  0.00000000E+00  0.00000000E+00  0.00000000E+00
  0.00000000E+00  0.00000000E+00  0.00000000E+00
  0.00000000E+00  0.00000000E+00  0.00000000E+00
  0.00000000E+00  0.00000000E+00  0.00000000E+00
  0.00000000E+00  0.00000000E+00  0.00000000E+00
  0.00000000E+00  0.00000000E+00  0.00000000E+00
  0.00000000E+00  0.00000000E+00  0.00000000E+00
  0.00000000E+00  0.00000000E+00  0.00000000E+00
  0.00000000E+00  0.00000000E+00  0.00000000E+00
  0.00000000E+00  0.00000000E+00  0.00000000E+00
  0.00000000E+00  0.00000000E+00  0.00000000E+00
  0.00000000E+00  0.00000000E+00  0.00000000E+00
  0.00000000E+00  0.00000000E+00  0.00000000E+00
  0.00000000E+00  0.00000000E+00  0.00000000E+00
  0.00000000E+00  0.00000000E+00  0.00000000E+00
  0.00000000E+00  0.00000000E+00  0.00000000E+00
