5L_3x3_(1\1\1)                          
   1.00000000000000     
     8.4506998061999994    0.0000000000000000    0.0000000000000000
    -4.2253499030999997    7.3185207118999998    0.0000000000000000
     0.0000000000000000    0.0000000000000000   24.2000007629000002
   Ir   Pd   Pt   Rh   Ru   H 
     8     9     9     9     9     1
Direct
  0.5556151911150603  0.1066665120991728  0.0395282180515414
  0.5519057271079013  0.1132074604533995  0.3082133741469545
  0.7764148901557387  0.2294318049554370  0.2172959060179687
  0.3232707649010219  0.3309089404671548  0.1273321222675720
  0.8726885648113655  0.4382792256913937  0.3066375751220791
  0.9975744090613446  0.6566425097480580  0.1257957423848098
  0.3446965541980446  0.6669671975415167  0.3916118543407304
  0.8909873755905443  0.7765376252208828  0.3061255124387346
  0.0089628039213903  0.9991187438191722  0.3967913869875782
  0.2261056087736335  0.1142488888291756  0.0321588720204088
  0.3385538143054221  0.0010105429065651  0.4026761884064756
  0.6651562578400751  0.0004922835481959  0.3999937794924069
  0.2114983914370226  0.4380002476927452  0.3073075457637892
  0.8892840988419569  0.4427022945169612  0.0332285930488024
  0.1085540045237113  0.8852350394662104  0.2161670388252147
  0.4506289015265789  0.8917146848834625  0.2174420676969755
  0.7746353045589034  0.8861094418712057  0.2166870686759603
  0.0031115654478693  0.0056578661219624  0.1264801988969450
  0.8853157897460495  0.1079380388519654  0.3069876076702188
  0.1017477958354049  0.5472583534317665  0.2171340043557699
  0.0008570043234586  0.6474937340866940  0.3957428372005294
  0.3317850123116774  0.6672914716581594  0.1284446672325289
  0.5564452707998240  0.7812840586395412  0.0361112961977202
  0.6640587838229977  0.6614076299170645  0.1287569794103439
  0.6629134136994055  0.6665313985935144  0.3963480135342284
  0.8868816300540516  0.7720041034851144  0.0369420284929115
  0.3377923915368791  0.0053122957066635  0.1266056666272188
  0.4431110562683786  0.2325335410217125  0.2174168443965877
  0.8830269821758461  0.1184028492737934  0.0380713019984701
  0.3488150271933169  0.3418717022211740  0.3941064959239304
  0.5437044529796311  0.4375092710506022  0.0387291687106688
  0.5529369805480129  0.4430079683408544  0.3048890484145292
  0.6687024495237589  0.3285043156952581  0.1275985286882658
  0.2269534829944257  0.7764718122632462  0.0380895885853616
  0.2279428624682662  0.7889574467857026  0.3091753378067371
  0.2239249318698211  0.1063729183200029  0.3066745259394050
  0.1241299556408462  0.2315809499462317  0.2175250060560338
  0.6773017882766257  0.0211916641138055  0.1255821014236127
  0.9966765840932821  0.3229874625816549  0.1268747454497546
  0.2266117350260502  0.4456995025485249  0.0416921733682039
  0.4464877555019792  0.5450690048977047  0.2178727505176588
  0.6645574289041321  0.3484754719102606  0.3942582819539072
  0.7676817820889718  0.5473319227533213  0.2176116557484357
  0.5561806701473799  0.7767880976570561  0.3062569139807140
  0.5792839016544413  0.1414023744479216  0.4337245973201309
 
  0.00000000E+00  0.00000000E+00  0.00000000E+00
  0.00000000E+00  0.00000000E+00  0.00000000E+00
  0.00000000E+00  0.00000000E+00  0.00000000E+00
  0.00000000E+00  0.00000000E+00  0.00000000E+00
  0.00000000E+00  0.00000000E+00  0.00000000E+00
  0.00000000E+00  0.00000000E+00  0.00000000E+00
  0.00000000E+00  0.00000000E+00  0.00000000E+00
  0.00000000E+00  0.00000000E+00  0.00000000E+00
  0.00000000E+00  0.00000000E+00  0.00000000E+00
  0.00000000E+00  0.00000000E+00  0.00000000E+00
  0.00000000E+00  0.00000000E+00  0.00000000E+00
  0.00000000E+00  0.00000000E+00  0.00000000E+00
  0.00000000E+00  0.00000000E+00  0.00000000E+00
  0.00000000E+00  0.00000000E+00  0.00000000E+00
  0.00000000E+00  0.00000000E+00  0.00000000E+00
  0.00000000E+00  0.00000000E+00  0.00000000E+00
  0.00000000E+00  0.00000000E+00  0.00000000E+00
  0.00000000E+00  0.00000000E+00  0.00000000E+00
  0.00000000E+00  0.00000000E+00  0.00000000E+00
  0.00000000E+00  0.00000000E+00  0.00000000E+00
  0.00000000E+00  0.00000000E+00  0.00000000E+00
  0.00000000E+00  0.00000000E+00  0.00000000E+00
  0.00000000E+00  0.00000000E+00  0.00000000E+00
  0.00000000E+00  0.00000000E+00  0.00000000E+00
  0.00000000E+00  0.00000000E+00  0.00000000E+00
  0.00000000E+00  0.00000000E+00  0.00000000E+00
  0.00000000E+00  0.00000000E+00  0.00000000E+00
  0.00000000E+00  0.00000000E+00  0.00000000E+00
  0.00000000E+00  0.00000000E+00  0.00000000E+00
  0.00000000E+00  0.00000000E+00  0.00000000E+00
  0.00000000E+00  0.00000000E+00  0.00000000E+00
  0.00000000E+00  0.00000000E+00  0.00000000E+00
  0.00000000E+00  0.00000000E+00  0.00000000E+00
  0.00000000E+00  0.00000000E+00  0.00000000E+00
  0.00000000E+00  0.00000000E+00  0.00000000E+00
  0.00000000E+00  0.00000000E+00  0.00000000E+00
  0.00000000E+00  0.00000000E+00  0.00000000E+00
  0.00000000E+00  0.00000000E+00  0.00000000E+00
  0.00000000E+00  0.00000000E+00  0.00000000E+00
  0.00000000E+00  0.00000000E+00  0.00000000E+00
  0.00000000E+00  0.00000000E+00  0.00000000E+00
  0.00000000E+00  0.00000000E+00  0.00000000E+00
  0.00000000E+00  0.00000000E+00  0.00000000E+00
  0.00000000E+00  0.00000000E+00  0.00000000E+00
  0.00000000E+00  0.00000000E+00  0.00000000E+00
