step                                    
   1.00000000000000     
     8.4506998061999994    0.0000000000000000    0.0000000000000000
    -4.2253499030999997    7.3185207118999998    0.0000000000000000
     0.0000000000000000    0.0000000000000000   24.2000007629000002
   Ir   Pd   Pt   Rh   Ru   H 
     9    10     9     9    11     1
Direct
  0.9951543085701311  0.0069756764097144  0.1269602421132322
  0.1111944085732267  0.2140439683012872  0.2155200645792507
  0.5650765670665010  0.1241116954652968  0.0403591344142100
  0.2421146676638170  0.4570418631878784  0.0404470235342999
  0.5497171707916205  0.4430768706285511  0.0398232173604431
  0.3352292603764824  0.6740537722144555  0.1251833632978591
  0.3204394750168180  0.6756785973917198  0.3997885114651205
  0.5555973748639433  0.7809265353211167  0.0393902806182856
  0.6648602158956310  0.6708065845090816  0.1286005117243741
  0.2193237064665332  0.1192464731373598  0.0350363216546429
  0.2243171212559382  0.1122814337465018  0.3054631333359437
  0.7761608791492981  0.2261660381981143  0.2162329545498360
 -0.0056659165005647  0.3338225206318717  0.4043163344154448
  0.1094015196440221  0.5595658716942956  0.2167792926339877
  0.3163991772105229  0.3168190066257599  0.4031253202915223
  0.8836728512205001  0.4431941938011492  0.0344666896784988
  0.8863608817912713  0.4503260162839335  0.3109463049850410
  0.2276309053297147  0.7820527131225483  0.0346788365742208
  0.7573613439083092  0.2272971493450300  0.4865650779672757
  0.3308793239861312  0.0004338016134777  0.4015797488709626
  0.8876254612777800  0.1068476088273244  0.3109252826068390
  0.2155419498689151  0.4449713395536199  0.3096341835907759
  0.5568857260393160  0.4397507932613027  0.3067114297985770
  0.4425885382287779  0.5531072791498193  0.2159376638411260
  0.9959747386023261  0.6663228287416729  0.1273422164263937
  0.5502435583031146  0.7851208702117387  0.3070228531422382
  0.4503008786479296  0.8994071732398375  0.2149138397257134
  0.6193987199198628  0.6435808106884858  0.3982327614003152
  0.3379725732106360  0.0108214460917234  0.1283131122566451
  0.5575832480489366  0.1149303924192016  0.3076144098685617
  0.6417495452653056 -0.0030441693607582  0.4012129186280476
  0.8728861087180804  0.1046253411428065  0.0371270254081980
  0.0021181634179026  0.3303330464534053  0.1256683594856836
  0.2186063228877348  0.7830826170819007  0.3060631829503699
  0.1042440152878750  0.8946036785656887  0.2155984669371353
  0.8697256791421704  0.7803699492655619  0.0388375397849126
  0.8904233854078560  0.7812897762809967  0.3124181524972596
  0.0200978332883194 -0.0037893336964530  0.3979333433169971
  0.4528513015744924  0.2348400450919329  0.2135988650394036
  0.6699979881035301  0.0017070911571439  0.1248718809389902
  0.3311326526562474  0.3286180825264758  0.1279289681817785
  0.6543561318502948  0.3352690237632531  0.1274838661753997
  0.6397653097378527  0.3146376025508507  0.3988943272705939
  0.7647930944723789  0.5579009429883420  0.2151901301294903
  0.0227690423683427  0.6867918697533412  0.3984355366989143
  0.7910548765804390  0.8924752950698935  0.2156877316808296
  0.8145336470559361  0.5786154524997591  0.4642754106812859
  0.8220806632025790  0.9022825622189204  0.4645408565156477
  0.2773533735552089  0.6463794428330659  0.4643633239574224
 
  0.00000000E+00  0.00000000E+00  0.00000000E+00
  0.00000000E+00  0.00000000E+00  0.00000000E+00
  0.00000000E+00  0.00000000E+00  0.00000000E+00
  0.00000000E+00  0.00000000E+00  0.00000000E+00
  0.00000000E+00  0.00000000E+00  0.00000000E+00
  0.00000000E+00  0.00000000E+00  0.00000000E+00
  0.00000000E+00  0.00000000E+00  0.00000000E+00
  0.00000000E+00  0.00000000E+00  0.00000000E+00
  0.00000000E+00  0.00000000E+00  0.00000000E+00
  0.00000000E+00  0.00000000E+00  0.00000000E+00
  0.00000000E+00  0.00000000E+00  0.00000000E+00
  0.00000000E+00  0.00000000E+00  0.00000000E+00
  0.00000000E+00  0.00000000E+00  0.00000000E+00
  0.00000000E+00  0.00000000E+00  0.00000000E+00
  0.00000000E+00  0.00000000E+00  0.00000000E+00
  0.00000000E+00  0.00000000E+00  0.00000000E+00
  0.00000000E+00  0.00000000E+00  0.00000000E+00
  0.00000000E+00  0.00000000E+00  0.00000000E+00
  0.00000000E+00  0.00000000E+00  0.00000000E+00
  0.00000000E+00  0.00000000E+00  0.00000000E+00
  0.00000000E+00  0.00000000E+00  0.00000000E+00
  0.00000000E+00  0.00000000E+00  0.00000000E+00
  0.00000000E+00  0.00000000E+00  0.00000000E+00
  0.00000000E+00  0.00000000E+00  0.00000000E+00
  0.00000000E+00  0.00000000E+00  0.00000000E+00
  0.00000000E+00  0.00000000E+00  0.00000000E+00
  0.00000000E+00  0.00000000E+00  0.00000000E+00
  0.00000000E+00  0.00000000E+00  0.00000000E+00
  0.00000000E+00  0.00000000E+00  0.00000000E+00
  0.00000000E+00  0.00000000E+00  0.00000000E+00
  0.00000000E+00  0.00000000E+00  0.00000000E+00
  0.00000000E+00  0.00000000E+00  0.00000000E+00
  0.00000000E+00  0.00000000E+00  0.00000000E+00
  0.00000000E+00  0.00000000E+00  0.00000000E+00
  0.00000000E+00  0.00000000E+00  0.00000000E+00
  0.00000000E+00  0.00000000E+00  0.00000000E+00
  0.00000000E+00  0.00000000E+00  0.00000000E+00
  0.00000000E+00  0.00000000E+00  0.00000000E+00
  0.00000000E+00  0.00000000E+00  0.00000000E+00
  0.00000000E+00  0.00000000E+00  0.00000000E+00
  0.00000000E+00  0.00000000E+00  0.00000000E+00
  0.00000000E+00  0.00000000E+00  0.00000000E+00
  0.00000000E+00  0.00000000E+00  0.00000000E+00
  0.00000000E+00  0.00000000E+00  0.00000000E+00
  0.00000000E+00  0.00000000E+00  0.00000000E+00
  0.00000000E+00  0.00000000E+00  0.00000000E+00
  0.00000000E+00  0.00000000E+00  0.00000000E+00
  0.00000000E+00  0.00000000E+00  0.00000000E+00
  0.00000000E+00  0.00000000E+00  0.00000000E+00
