total                                   
   1.00000000000000     
     8.4506998061999994    0.0000000000000000    0.0000000000000000
    -4.2253499030999997    7.3185207118999998    0.0000000000000000
     0.0000000000000000    0.0000000000000000   24.2000007629000002
   Ir   Pd   Pt   Rh   Ru   H 
     9     9     9     9     9     1
Direct
  0.6202212849978402  0.7276002925607148  0.1246088521971791
  0.5787686084153991  0.4753971996217361  0.3895739949088438
  0.8909156232103671  0.7004160390949332  0.4068111424967928
  0.1482695789850737  0.7661432875756108  0.0480606068478753
  0.6414019952957296  0.7072660558581421  0.2958086446295946
  0.9423017948712108  0.3923152522813001  0.2020270757086176
  0.7674570239468436  0.0977701540687819  0.1361533495429544
  0.1597789491926418  0.7496780600884602  0.3468614519044138
  0.4219643433161013  0.8828501542666994  0.1142420954444753
  0.9476444435116115  0.1411793035719469  0.3888121579333376
  0.2649076929558574  0.3546447080799304  0.4334043398571852
  0.1008166763885756  0.1971775465144141  0.1828344606441130
  0.9981589932478739  0.9371414980756740  0.1007783338350121
  0.8690820043611888  0.8419377246234536  0.2062785194028205
  0.0855038129547279  0.2735100725853846  0.0514074676161397
  0.7657643708031183  0.6105060431685884  0.0437820850007033
  0.6474679125910882  0.8214851569776845  0.3996907724517731
  0.8354038177835827  0.0883415670345363  0.2705727959000421
  0.7499227540197186  0.9362045925055203  0.0328571417756921
  0.2758398797437890  0.1130461697660673  0.0282341119868488
  0.2076499705736352  0.2631468147480709  0.2922138752302761
  0.6959131821290180  0.2384217315442484  0.3758481761737633
  0.4696606223813194  0.9626448708935417  0.0010964393499589
  0.7159116703839064  0.4874904407683944  0.1606946733080158
  0.3321776988488139  0.1127556611172068  0.3668116813890190
  0.2375009079745449  0.9659565848186553  0.2538178525839359
  0.4433549812764286  0.4881077463958206  0.2143867843396409
  0.4226957009096297  0.3907373070345517  0.0940076805123715
  0.2421757205321065  0.5376332292492373  0.1415959040050531
  0.3405156006462898  0.1070939527454631  0.1543001621577727
  0.3864634258872789  0.6389727209371462  0.0400590004905456
  0.5998936906636326  0.1757274742845600  0.2235609296889599
  0.9382049020565928  0.4561284538271957  0.0904268851273088
  0.8933320191003633  0.6041199239319111  0.2722470398250593
  0.0214087887596089  0.4824243996565248  0.4176125370559412
  0.4980600865250979  0.9270104240572558  0.3186420726511236
  0.0977299927934371  0.7350072956825854  0.1634543303291718
  0.5478899874908520  0.8545426063572544  0.2134602194370403
  0.7972530302141331  0.2516286481967636  0.0039593698551238
  0.0039171479189048  0.4053591162881554  0.3179366988076103
  0.5592037484334197  0.3604440511490623  0.2935106545691424
  0.2313851511361449  0.6406313759517208  0.2479231744469825
  0.9778909785488475  0.9141120370379708  0.3249360379329153
  0.6005918026494628  0.2291283912779263  0.0780923239310049
  0.3390688198717392  0.5739909049660404  0.3486670352574053
 -0.0948210912975598  0.7565829257631835  0.4703690374604510
 
  0.00000000E+00  0.00000000E+00  0.00000000E+00
  0.00000000E+00  0.00000000E+00  0.00000000E+00
  0.00000000E+00  0.00000000E+00  0.00000000E+00
  0.00000000E+00  0.00000000E+00  0.00000000E+00
  0.00000000E+00  0.00000000E+00  0.00000000E+00
  0.00000000E+00  0.00000000E+00  0.00000000E+00
  0.00000000E+00  0.00000000E+00  0.00000000E+00
  0.00000000E+00  0.00000000E+00  0.00000000E+00
  0.00000000E+00  0.00000000E+00  0.00000000E+00
  0.00000000E+00  0.00000000E+00  0.00000000E+00
  0.00000000E+00  0.00000000E+00  0.00000000E+00
  0.00000000E+00  0.00000000E+00  0.00000000E+00
  0.00000000E+00  0.00000000E+00  0.00000000E+00
  0.00000000E+00  0.00000000E+00  0.00000000E+00
  0.00000000E+00  0.00000000E+00  0.00000000E+00
  0.00000000E+00  0.00000000E+00  0.00000000E+00
  0.00000000E+00  0.00000000E+00  0.00000000E+00
  0.00000000E+00  0.00000000E+00  0.00000000E+00
  0.00000000E+00  0.00000000E+00  0.00000000E+00
  0.00000000E+00  0.00000000E+00  0.00000000E+00
  0.00000000E+00  0.00000000E+00  0.00000000E+00
  0.00000000E+00  0.00000000E+00  0.00000000E+00
  0.00000000E+00  0.00000000E+00  0.00000000E+00
  0.00000000E+00  0.00000000E+00  0.00000000E+00
  0.00000000E+00  0.00000000E+00  0.00000000E+00
  0.00000000E+00  0.00000000E+00  0.00000000E+00
  0.00000000E+00  0.00000000E+00  0.00000000E+00
  0.00000000E+00  0.00000000E+00  0.00000000E+00
  0.00000000E+00  0.00000000E+00  0.00000000E+00
  0.00000000E+00  0.00000000E+00  0.00000000E+00
  0.00000000E+00  0.00000000E+00  0.00000000E+00
  0.00000000E+00  0.00000000E+00  0.00000000E+00
  0.00000000E+00  0.00000000E+00  0.00000000E+00
  0.00000000E+00  0.00000000E+00  0.00000000E+00
  0.00000000E+00  0.00000000E+00  0.00000000E+00
  0.00000000E+00  0.00000000E+00  0.00000000E+00
  0.00000000E+00  0.00000000E+00  0.00000000E+00
  0.00000000E+00  0.00000000E+00  0.00000000E+00
  0.00000000E+00  0.00000000E+00  0.00000000E+00
  0.00000000E+00  0.00000000E+00  0.00000000E+00
  0.00000000E+00  0.00000000E+00  0.00000000E+00
  0.00000000E+00  0.00000000E+00  0.00000000E+00
  0.00000000E+00  0.00000000E+00  0.00000000E+00
  0.00000000E+00  0.00000000E+00  0.00000000E+00
  0.00000000E+00  0.00000000E+00  0.00000000E+00
  0.00000000E+00  0.00000000E+00  0.00000000E+00
