fRu3Pt2Rh1                              
   1.00000000000000     
     8.4506998061999994    0.0000000000000000    0.0000000000000000
    -4.2253499030999997    7.3185207118999998    0.0000000000000000
     0.0000000000000000    0.0000000000000000   24.2000007629000002
   Ir   Pd   Pt   Rh   Ru   H 
     9     9     9     9     9     1
Direct
  0.9963649393843570  0.0048033333779123  0.1260983339031396
  0.1109939864776735  0.2103977594580991  0.2154470771000160
  0.5650015708270437  0.1201962502597958  0.0397225729598907
  0.2430993182069743  0.4529486914446097  0.0403736038730567
  0.5503726058990505  0.4400430026203638  0.0393186810903032
  0.3373873024584764  0.6716322164577964  0.1250221702335854
  0.3229590025009235  0.6739861134034476  0.3951226863710349
  0.5555141793521021  0.7780942951731232  0.0385646504969266
  0.6651888555609319  0.6686601282060343  0.1276193440837194
  0.2221704726151840  0.1157409595564378  0.0345568794223577
  0.2241913898959994  0.1105918042349130  0.3062605082690154
  0.7753353409459794  0.2221631157343497  0.2157151067191589
  0.9955533542690120  0.3380765123349592  0.4032273457100875
  0.1112796206373240  0.5582986688143091  0.2157452345066864
  0.3356581789902431  0.3355678147185241  0.4008789418397770
  0.8837906714169120  0.4401609098591971  0.0341585452763771
  0.8896903823579119  0.4477221903569873  0.3077810478702854
  0.2282509519604609  0.7787440156739769  0.0343879327525706
  0.3342693700107207  0.0026114439117270  0.4002396626918657
  0.8903397729856182  0.1085091949666646  0.3091488146623125
  0.2183939730489212  0.4428965417116478  0.3078390334023833
  0.5601379877993239  0.4428007138405122  0.3062855789602852
  0.4452946944895033  0.5504454572103623  0.2153166927287485
  0.9964515582629679  0.6639304904011235  0.1265696180575033
  0.5571517659676667  0.7805282225174490  0.3059341508961818
  0.4487672534599805  0.8973878881605786  0.2159093431457134
  0.6736611337944388  0.6579810098301819  0.3998753777380147
  0.3398668250549171  0.0075399306814485  0.1288347794739108
  0.5568256301247625  0.1134049151176713  0.3097656946739456
  0.6599810036823451  0.9965215804397902  0.3983458577365285
  0.8754756157264303  0.1025528101914477  0.0367874807352435
  0.0031756195849325  0.3276809443674014  0.1253987304212505
  0.2217961695602584  0.7810050417254606  0.3075544450982574
  0.1037540121239185  0.8902857986353468  0.2152299204191053
  0.8699322343786292  0.7765924847703958  0.0381601869739360
  0.8951873457351281  0.7799585986800800  0.3066849768688490
  0.9985737933016808  0.9769246793110622  0.3956015339515520
  0.4536630104897606  0.2327877532551345  0.2142824289765635
  0.6699076738877094  0.9996321357541718  0.1237673574087603
  0.3317916011433461  0.3246694395257491  0.1276699378405803
  0.6531555244635490  0.3293648937144847  0.1268085577166715
  0.6618122957744258  0.3264987884029211  0.3942154748871651
  0.7663511987757216  0.5558694029161315  0.2142065817591274
  0.0133954787794319  0.6826152723467402  0.3934347339008399
  0.7902912037683236  0.8891559484998707  0.2154175652411612
  0.7818138590690156  0.8870203624296034  0.4345348301555554
 
  0.00000000E+00  0.00000000E+00  0.00000000E+00
  0.00000000E+00  0.00000000E+00  0.00000000E+00
  0.00000000E+00  0.00000000E+00  0.00000000E+00
  0.00000000E+00  0.00000000E+00  0.00000000E+00
  0.00000000E+00  0.00000000E+00  0.00000000E+00
  0.00000000E+00  0.00000000E+00  0.00000000E+00
  0.00000000E+00  0.00000000E+00  0.00000000E+00
  0.00000000E+00  0.00000000E+00  0.00000000E+00
  0.00000000E+00  0.00000000E+00  0.00000000E+00
  0.00000000E+00  0.00000000E+00  0.00000000E+00
  0.00000000E+00  0.00000000E+00  0.00000000E+00
  0.00000000E+00  0.00000000E+00  0.00000000E+00
  0.00000000E+00  0.00000000E+00  0.00000000E+00
  0.00000000E+00  0.00000000E+00  0.00000000E+00
  0.00000000E+00  0.00000000E+00  0.00000000E+00
  0.00000000E+00  0.00000000E+00  0.00000000E+00
  0.00000000E+00  0.00000000E+00  0.00000000E+00
  0.00000000E+00  0.00000000E+00  0.00000000E+00
  0.00000000E+00  0.00000000E+00  0.00000000E+00
  0.00000000E+00  0.00000000E+00  0.00000000E+00
  0.00000000E+00  0.00000000E+00  0.00000000E+00
  0.00000000E+00  0.00000000E+00  0.00000000E+00
  0.00000000E+00  0.00000000E+00  0.00000000E+00
  0.00000000E+00  0.00000000E+00  0.00000000E+00
  0.00000000E+00  0.00000000E+00  0.00000000E+00
  0.00000000E+00  0.00000000E+00  0.00000000E+00
  0.00000000E+00  0.00000000E+00  0.00000000E+00
  0.00000000E+00  0.00000000E+00  0.00000000E+00
  0.00000000E+00  0.00000000E+00  0.00000000E+00
  0.00000000E+00  0.00000000E+00  0.00000000E+00
  0.00000000E+00  0.00000000E+00  0.00000000E+00
  0.00000000E+00  0.00000000E+00  0.00000000E+00
  0.00000000E+00  0.00000000E+00  0.00000000E+00
  0.00000000E+00  0.00000000E+00  0.00000000E+00
  0.00000000E+00  0.00000000E+00  0.00000000E+00
  0.00000000E+00  0.00000000E+00  0.00000000E+00
  0.00000000E+00  0.00000000E+00  0.00000000E+00
  0.00000000E+00  0.00000000E+00  0.00000000E+00
  0.00000000E+00  0.00000000E+00  0.00000000E+00
  0.00000000E+00  0.00000000E+00  0.00000000E+00
  0.00000000E+00  0.00000000E+00  0.00000000E+00
  0.00000000E+00  0.00000000E+00  0.00000000E+00
  0.00000000E+00  0.00000000E+00  0.00000000E+00
  0.00000000E+00  0.00000000E+00  0.00000000E+00
  0.00000000E+00  0.00000000E+00  0.00000000E+00
  0.00000000E+00  0.00000000E+00  0.00000000E+00
