step                                    
   1.00000000000000     
     8.4506998061999994    0.0000000000000000    0.0000000000000000
    -4.2253499030999997    7.3185207118999998    0.0000000000000000
     0.0000000000000000    0.0000000000000000   24.2000007629000002
   Ir   Pd   Pt   Rh   Ru   H 
     9    10    10    10     9     1
Direct
  0.5524913418717632  0.1092776451343294  0.0388736639288481
  0.5451264526784814  0.1144958993926487  0.3089347261047222
  0.7713978843819579  0.2326489635180063  0.2164337168986167
  0.0081425325710290  0.3506255174960065  0.3954892111355851
  0.3220166594497863  0.3323082101653161  0.1260286474829492
  0.8728653390481483  0.4465699068741175  0.3056676484647785
  0.9937379478272533  0.6599904242773394  0.1251949122069906
  0.3240781620621034  0.6553610913307237  0.3918258899667013
  0.8835449239386716  0.7793191209649911  0.3061808169656911
  0.0032969949437947  0.0108027619527092  0.3985512091516324
  0.2217618818866001  0.1168911889917340  0.0315481605687348
  0.3349733895092890  0.0113590834980400  0.4003014040370925
  0.6511455769435410 -0.0034606530534437  0.4009311586919889
  0.2212218049059624  0.4447207712455924  0.3032034417708117
  0.8856342700033344  0.4444002033540995  0.0324765943366133
  0.1034331406101376  0.8865046752961796  0.2156393821775817
  0.4466413805482626  0.8911301616440023  0.2169784260771880
  0.7707766235926932  0.8910548723435761  0.2163583695501062
  0.7827588694147268  0.8767437913568386  0.4859977480792554
 -0.0009800922111329  0.0068091320813036  0.1257587134369925
  0.8827658554543957  0.1115580424145328  0.3059862488475163
  0.0989620832556477  0.5489341613400757  0.2159763460979816
  0.0071095534803144  0.6704807781960765  0.3984389882978153
  0.3295614561057008  0.6693614886733470  0.1276015717516336
  0.5521341271039799  0.7839448337727716  0.0348906114428343
  0.6634580787510909  0.6665668785447280  0.1271763373792562
  0.6457031520237422  0.6547175130927644  0.3971110963824942
  0.8843617197696599  0.7750802859000171  0.0354355279435453
  0.7781729661964107  0.5521025248871082  0.4821280192899782
  0.3328221095190869  0.0054920650674938  0.1254781419834876
  0.4396888798171883  0.2326417864008153  0.2167967635729477
  0.8791613869600983  0.1195326963146821  0.0373349242466494
  0.3270898231713406  0.3354055010183855  0.3935425082868588
  0.5405333480637844  0.4383742782339431  0.0372723908402770
  0.5545736562496988  0.4446477963479525  0.3060395803485576
  0.6639025716563316  0.3311890562699607  0.1269148978682859
  0.2237896088560632  0.7772443755867650  0.0374046839194419
  0.2200352048313856  0.7899851539791535  0.3086600609887793
  0.8201790408883513  0.2688184922295147  0.4792756706010784
  0.2154607085637669  0.1018109178445638  0.3058778834901525
  0.1226666815576211  0.2343417853258881  0.2157036233918491
  0.6744256743548120  0.0237416673155521  0.1252004590045111
  0.9932800472458616  0.3253269128444011  0.1255884912917260
  0.2225733858803567  0.4478698484039462  0.0409464235948936
  0.4451374910361838  0.5467303156033960  0.2152276909454968
  0.6702273115695242  0.3358222138795040  0.3953067623366178
  0.7625955763959846  0.5474298809383933  0.2165141072643037
  0.5557802268326252  0.7771983114185851  0.3080593183903034
  0.6980730554325840  0.0328871572915691  0.4853370381678390
 
  0.00000000E+00  0.00000000E+00  0.00000000E+00
  0.00000000E+00  0.00000000E+00  0.00000000E+00
  0.00000000E+00  0.00000000E+00  0.00000000E+00
  0.00000000E+00  0.00000000E+00  0.00000000E+00
  0.00000000E+00  0.00000000E+00  0.00000000E+00
  0.00000000E+00  0.00000000E+00  0.00000000E+00
  0.00000000E+00  0.00000000E+00  0.00000000E+00
  0.00000000E+00  0.00000000E+00  0.00000000E+00
  0.00000000E+00  0.00000000E+00  0.00000000E+00
  0.00000000E+00  0.00000000E+00  0.00000000E+00
  0.00000000E+00  0.00000000E+00  0.00000000E+00
  0.00000000E+00  0.00000000E+00  0.00000000E+00
  0.00000000E+00  0.00000000E+00  0.00000000E+00
  0.00000000E+00  0.00000000E+00  0.00000000E+00
  0.00000000E+00  0.00000000E+00  0.00000000E+00
  0.00000000E+00  0.00000000E+00  0.00000000E+00
  0.00000000E+00  0.00000000E+00  0.00000000E+00
  0.00000000E+00  0.00000000E+00  0.00000000E+00
  0.00000000E+00  0.00000000E+00  0.00000000E+00
  0.00000000E+00  0.00000000E+00  0.00000000E+00
  0.00000000E+00  0.00000000E+00  0.00000000E+00
  0.00000000E+00  0.00000000E+00  0.00000000E+00
  0.00000000E+00  0.00000000E+00  0.00000000E+00
  0.00000000E+00  0.00000000E+00  0.00000000E+00
  0.00000000E+00  0.00000000E+00  0.00000000E+00
  0.00000000E+00  0.00000000E+00  0.00000000E+00
  0.00000000E+00  0.00000000E+00  0.00000000E+00
  0.00000000E+00  0.00000000E+00  0.00000000E+00
  0.00000000E+00  0.00000000E+00  0.00000000E+00
  0.00000000E+00  0.00000000E+00  0.00000000E+00
  0.00000000E+00  0.00000000E+00  0.00000000E+00
  0.00000000E+00  0.00000000E+00  0.00000000E+00
  0.00000000E+00  0.00000000E+00  0.00000000E+00
  0.00000000E+00  0.00000000E+00  0.00000000E+00
  0.00000000E+00  0.00000000E+00  0.00000000E+00
  0.00000000E+00  0.00000000E+00  0.00000000E+00
  0.00000000E+00  0.00000000E+00  0.00000000E+00
  0.00000000E+00  0.00000000E+00  0.00000000E+00
  0.00000000E+00  0.00000000E+00  0.00000000E+00
  0.00000000E+00  0.00000000E+00  0.00000000E+00
  0.00000000E+00  0.00000000E+00  0.00000000E+00
  0.00000000E+00  0.00000000E+00  0.00000000E+00
  0.00000000E+00  0.00000000E+00  0.00000000E+00
  0.00000000E+00  0.00000000E+00  0.00000000E+00
  0.00000000E+00  0.00000000E+00  0.00000000E+00
  0.00000000E+00  0.00000000E+00  0.00000000E+00
  0.00000000E+00  0.00000000E+00  0.00000000E+00
  0.00000000E+00  0.00000000E+00  0.00000000E+00
  0.00000000E+00  0.00000000E+00  0.00000000E+00
