total                                   
   1.00000000000000     
     8.4506998061999994    0.0000000000000000    0.0000000000000000
    -4.2253499030999997    7.3185207118999998    0.0000000000000000
     0.0000000000000000    0.0000000000000000   24.2000007629000002
   Ir   Pd   Pt   Rh   Ru   H 
     9     9     9     9     9     1
Direct
  0.9801500827568619  0.0030564917930014  0.0058496013899753
  0.4716307106753121  0.0061111091841034  0.0082014045491806
  0.0646188235565326  0.1917296503147499  0.3188239711061110
  0.6042205713679252  0.7595945047078452  0.2893607969460671
  0.4197752808657013  0.3967365085008686  0.3265006884457622
  0.8347707144737506  0.6778397130215534  0.0424405896076084
  0.2453446506599392  0.0470739579555767  0.3605029502217536
  0.4640236379245631  0.4737672730720998  0.2139907547853242
  0.8938384243100608  0.8394285573329325  0.3529017452983066
  0.6382524491645342  0.8313569550298344  0.1742436489130667
  0.9432383026197998  0.9661704808882431  0.1167429833901324
  0.5003862274587206  0.5444382733741954  0.0887162339745512
  0.1395674697300677  0.8393015788600915  0.1731172443515410
  0.7870679763697610  0.1274048700587543  0.2519222819981590
  0.3369732696975053  0.2302120403402035  0.0088480061653966
  0.6354459729369173  0.3230039181842055  0.0712650367097042
  0.1334898110727619  0.3223148248835273  0.0715404268669819
  0.2853053934530047  0.6084348662838973  0.1558923650106642
  0.9255972674462080  0.9013865716397161  0.2368143609203220
  0.1084080225827475  0.2600284850932305  0.1944037418082072
  0.9595295351083876  0.4859577027493943  0.2157770046472475
  0.0670362922609574  0.6935288229924528  0.3991868209545045
  0.5983446191087657  0.2623758336080044  0.1959767365688470
  0.2431498020261346  0.5480563148331038  0.2759813496128157
  0.2152903222224856  0.4768386373334014  0.3926977976336119
  0.4222769139017855  0.9067749947017784  0.2374696877167633
  0.4650880167403916  0.9665344812783377  0.1174052871075313
  0.1717669037361549  0.8978260048840004  0.0610025549809551
  0.9862799564049666  0.5398991753903730  0.1060733076784591
  0.6188761116544746  0.7910333647698350  0.0080454985119744
  0.2848669910202082  0.6742754230371762  0.0398628152462737
  0.7068105797548324  0.4792308760581868  0.3856763362297621
  0.3935742150593901  0.8438093914732293  0.3532848715422712
  0.9437921886967288  0.4449680681692488  0.0079191750351703
  0.8228703220253497  0.2022917303377846  0.1379337810442745
  0.5714717579812617  0.1952954145593412  0.3173864150368518
  0.7465676416885088  0.5483682614202078  0.2784397760004556
  0.7827432318613960  0.1158198753051360  0.0390272551935564
  0.5781411934837416  0.7080070542167746  0.3929027308285086
  0.2834390394647898  0.1262317633903003  0.2500796052991330
  0.1023185907493725  0.7671735713528570  0.2892127795993352
  0.9181273532111599  0.3969842960827078  0.3304750410858555
  0.3193345313518212  0.1888581645003882  0.1334014042891262
  0.7699758829367844  0.6124295045514291  0.1602690970276234
  0.7406795815232209  0.0358093055776273  0.3614777604366173
  0.1351033549042480  0.5620313719082985  0.4437663392336449
 
  0.00000000E+00  0.00000000E+00  0.00000000E+00
  0.00000000E+00  0.00000000E+00  0.00000000E+00
  0.00000000E+00  0.00000000E+00  0.00000000E+00
  0.00000000E+00  0.00000000E+00  0.00000000E+00
  0.00000000E+00  0.00000000E+00  0.00000000E+00
  0.00000000E+00  0.00000000E+00  0.00000000E+00
  0.00000000E+00  0.00000000E+00  0.00000000E+00
  0.00000000E+00  0.00000000E+00  0.00000000E+00
  0.00000000E+00  0.00000000E+00  0.00000000E+00
  0.00000000E+00  0.00000000E+00  0.00000000E+00
  0.00000000E+00  0.00000000E+00  0.00000000E+00
  0.00000000E+00  0.00000000E+00  0.00000000E+00
  0.00000000E+00  0.00000000E+00  0.00000000E+00
  0.00000000E+00  0.00000000E+00  0.00000000E+00
  0.00000000E+00  0.00000000E+00  0.00000000E+00
  0.00000000E+00  0.00000000E+00  0.00000000E+00
  0.00000000E+00  0.00000000E+00  0.00000000E+00
  0.00000000E+00  0.00000000E+00  0.00000000E+00
  0.00000000E+00  0.00000000E+00  0.00000000E+00
  0.00000000E+00  0.00000000E+00  0.00000000E+00
  0.00000000E+00  0.00000000E+00  0.00000000E+00
  0.00000000E+00  0.00000000E+00  0.00000000E+00
  0.00000000E+00  0.00000000E+00  0.00000000E+00
  0.00000000E+00  0.00000000E+00  0.00000000E+00
  0.00000000E+00  0.00000000E+00  0.00000000E+00
  0.00000000E+00  0.00000000E+00  0.00000000E+00
  0.00000000E+00  0.00000000E+00  0.00000000E+00
  0.00000000E+00  0.00000000E+00  0.00000000E+00
  0.00000000E+00  0.00000000E+00  0.00000000E+00
  0.00000000E+00  0.00000000E+00  0.00000000E+00
  0.00000000E+00  0.00000000E+00  0.00000000E+00
  0.00000000E+00  0.00000000E+00  0.00000000E+00
  0.00000000E+00  0.00000000E+00  0.00000000E+00
  0.00000000E+00  0.00000000E+00  0.00000000E+00
  0.00000000E+00  0.00000000E+00  0.00000000E+00
  0.00000000E+00  0.00000000E+00  0.00000000E+00
  0.00000000E+00  0.00000000E+00  0.00000000E+00
  0.00000000E+00  0.00000000E+00  0.00000000E+00
  0.00000000E+00  0.00000000E+00  0.00000000E+00
  0.00000000E+00  0.00000000E+00  0.00000000E+00
  0.00000000E+00  0.00000000E+00  0.00000000E+00
  0.00000000E+00  0.00000000E+00  0.00000000E+00
  0.00000000E+00  0.00000000E+00  0.00000000E+00
  0.00000000E+00  0.00000000E+00  0.00000000E+00
  0.00000000E+00  0.00000000E+00  0.00000000E+00
  0.00000000E+00  0.00000000E+00  0.00000000E+00
