5L_3x3_(1\1\1)                          
   1.00000000000000     
     8.4506998061999994    0.0000000000000000    0.0000000000000000
    -4.2253499030999997    7.3185207118999998    0.0000000000000000
     0.0000000000000000    0.0000000000000000   24.2000007629000002
   Ir   Pd   Pt   Rh   Ru   H 
     9     9     9     9     8     1
Direct
  0.9986927724337893  0.0055195226091819  0.1259544153731074
  0.1145892551955820  0.2117642852752203  0.2152429603726070
  0.5663709391603835  0.1205187077024805  0.0403504335026601
  0.2447834078012536  0.4545366337885131  0.0405305207932627
  0.5521919301820057  0.4401449388880418  0.0394225479101775
  0.3366140261422155  0.6711035851180792  0.1254638424770722
  0.3491716430889550  0.6813401146185210  0.3932364982701041
  0.5569006017924760  0.7799267151741155  0.0394474020287293
  0.6677788994998015  0.6686460989992279  0.1278348291664673
  0.2230878807261308  0.1166435242452038  0.0344894291975131
  0.2249942310943004  0.1101264407085834  0.3070018171984752
  0.7770204704317931  0.2243579805156839  0.2157537623379472
  0.0055631222386347  0.3363044601951403  0.4021151323836505
  0.1100116040451773  0.5586593103812689  0.2167852122718348
  0.3342393620330482  0.3343811289258203  0.4018507030265988
  0.8847838334531331  0.4394947171431522  0.0345317405341184
  0.8915638176287094  0.4556801427386037  0.3110367798827619
  0.2294667149788734  0.7795362583072211  0.0345706544798667
  0.3305042842281082 -0.0047217965809861  0.3986181540312728
  0.8935491883451365  0.1148655831298420  0.3068288229008884
  0.2211906237334251  0.4467519180280008  0.3075551706059429
  0.5630676921275412  0.4454021319594660  0.3060502242290519
  0.4466877014702691  0.5516829748118907  0.2149909008104622
  0.9980739338548540  0.6638156239412094  0.1267618413388125
  0.5639033970338964  0.7872014178313806  0.3035987400009270
  0.4465998418828519  0.8983352253456010  0.2163347558803131
  0.6639400349233834  0.6668598602903504  0.3972819574528290
  0.3396261110476955  0.0081337190512380  0.1287927078796010
  0.5610781206352528  0.1170239683443762  0.3087528173743064
  0.6649683398021571  0.9988529792040067  0.3972054634802496
  0.8745461220672484  0.1016415503859718  0.0376510597703475
  0.0052855094849077  0.3282045188449218  0.1256515509713299
  0.2163486924403435  0.7749894156281412  0.3108402676959870
  0.1050889074784108  0.8905032065789130  0.2156310148399146
  0.8711319953163997  0.7772489406822760  0.0382984792774714
  0.9019505720723170  0.7827298185284395  0.3091194897657271
  0.9839157873003805  0.9877568414117955  0.3939545608665543
  0.4543759486517052  0.2329143907862944  0.2143084738272218
  0.6696774567269019  0.9974308060761011  0.1258687464208376
  0.3332199297919116  0.3261458358322457  0.1275841057927040
  0.6541193297047831  0.3306217423855963  0.1271993550873366
  0.6385449504155117  0.3140248542520128  0.3951317778804073
  0.7687839145765886  0.5560254632603383  0.2144736478332299
  0.7940754349429134  0.8890720249502650  0.2155335199633934
  0.8378277264511701  0.3804294571272319  0.4313781902528066
 
  0.00000000E+00  0.00000000E+00  0.00000000E+00
  0.00000000E+00  0.00000000E+00  0.00000000E+00
  0.00000000E+00  0.00000000E+00  0.00000000E+00
  0.00000000E+00  0.00000000E+00  0.00000000E+00
  0.00000000E+00  0.00000000E+00  0.00000000E+00
  0.00000000E+00  0.00000000E+00  0.00000000E+00
  0.00000000E+00  0.00000000E+00  0.00000000E+00
  0.00000000E+00  0.00000000E+00  0.00000000E+00
  0.00000000E+00  0.00000000E+00  0.00000000E+00
  0.00000000E+00  0.00000000E+00  0.00000000E+00
  0.00000000E+00  0.00000000E+00  0.00000000E+00
  0.00000000E+00  0.00000000E+00  0.00000000E+00
  0.00000000E+00  0.00000000E+00  0.00000000E+00
  0.00000000E+00  0.00000000E+00  0.00000000E+00
  0.00000000E+00  0.00000000E+00  0.00000000E+00
  0.00000000E+00  0.00000000E+00  0.00000000E+00
  0.00000000E+00  0.00000000E+00  0.00000000E+00
  0.00000000E+00  0.00000000E+00  0.00000000E+00
  0.00000000E+00  0.00000000E+00  0.00000000E+00
  0.00000000E+00  0.00000000E+00  0.00000000E+00
  0.00000000E+00  0.00000000E+00  0.00000000E+00
  0.00000000E+00  0.00000000E+00  0.00000000E+00
  0.00000000E+00  0.00000000E+00  0.00000000E+00
  0.00000000E+00  0.00000000E+00  0.00000000E+00
  0.00000000E+00  0.00000000E+00  0.00000000E+00
  0.00000000E+00  0.00000000E+00  0.00000000E+00
  0.00000000E+00  0.00000000E+00  0.00000000E+00
  0.00000000E+00  0.00000000E+00  0.00000000E+00
  0.00000000E+00  0.00000000E+00  0.00000000E+00
  0.00000000E+00  0.00000000E+00  0.00000000E+00
  0.00000000E+00  0.00000000E+00  0.00000000E+00
  0.00000000E+00  0.00000000E+00  0.00000000E+00
  0.00000000E+00  0.00000000E+00  0.00000000E+00
  0.00000000E+00  0.00000000E+00  0.00000000E+00
  0.00000000E+00  0.00000000E+00  0.00000000E+00
  0.00000000E+00  0.00000000E+00  0.00000000E+00
  0.00000000E+00  0.00000000E+00  0.00000000E+00
  0.00000000E+00  0.00000000E+00  0.00000000E+00
  0.00000000E+00  0.00000000E+00  0.00000000E+00
  0.00000000E+00  0.00000000E+00  0.00000000E+00
  0.00000000E+00  0.00000000E+00  0.00000000E+00
  0.00000000E+00  0.00000000E+00  0.00000000E+00
  0.00000000E+00  0.00000000E+00  0.00000000E+00
  0.00000000E+00  0.00000000E+00  0.00000000E+00
  0.00000000E+00  0.00000000E+00  0.00000000E+00
