step                                    
   1.00000000000000     
     8.4506998061999994    0.0000000000000000    0.0000000000000000
    -4.2253499030999997    7.3185207118999998    0.0000000000000000
     0.0000000000000000    0.0000000000000000   24.2000007629000002
   Ir   Pd   Pt   Rh   Ru   H 
    10     9     9    11     9     1
Direct
  0.9959813182174287  0.0038203317906131  0.1268261604640346
  0.1111863525512900  0.2100167546910744  0.2162488300214727
  0.5654124172162559  0.1202112366616463  0.0404107773624561
  0.2433196904897300  0.4532984117701193  0.0408142862674748
  0.5504125776439966  0.4399848698418440  0.0400811870243765
  0.3349850726538301  0.6706385091209941  0.1251381964975226
  0.3252434608899669  0.6761461805117952  0.3958040950487940
  0.5553261478485559  0.7776222610092057  0.0395789536040668
  0.6662073837902516  0.6674620063060749  0.1284023793883837
  0.8064640686576778  0.5639464230519683  0.4687363558808536
  0.2217362509317181  0.1158267896699342  0.0349820995395353
  0.2202967725349596  0.1067420235496608  0.3078711804863742
  0.7754764217872300  0.2237900226806140  0.2166798344162115
  0.0082370382934001  0.3344866081237040  0.4041127279597831
  0.1088683502387351  0.5563383282905153  0.2167057153888090
  0.3265542411353162  0.3216245442696984  0.4023729708676252
  0.8834363937526928  0.4393630261514239  0.0350867885285457
  0.8861786252647404  0.4470522321797502  0.3118604019733326
  0.2272634570546369  0.7782827232115370  0.0348972435782417
  0.3343590308152933 -0.0028112496964139  0.4023998083720611
  0.8884700654052270  0.1068881728165692  0.3092684824123792
  0.2172057880002551  0.4419221890937132  0.3086488682225998
  0.5588297072709604  0.4403204200122017  0.3080163738695369
  0.4418098491808030  0.5488322072425569  0.2150715939812594
  0.9956260525626592  0.6636347621281692  0.1277070448325405
  0.5554484315750176  0.7831941313642160  0.3058125289790571
  0.4511243008342898  0.8958871996848270  0.2149644919751469
  0.6350154453148633  0.6591724586482165  0.3983634991448266
  0.3380184955719280  0.0070820393178107  0.1288921242997103
  0.5556589804928365  0.1116802373884274  0.3088302055051697
  0.6577639570246776  0.9957199874892132  0.4035065049129653
  0.8735748453299949  0.1015648169909288  0.0373451044544270
  0.0026578345457437  0.3263204984913246  0.1262523144171980
  0.2193554250261990  0.7775197438781919  0.3068300483758030
  0.1063019961534688  0.8916259226514280  0.2165605656798465
  0.8698907689569852  0.7764165668538242  0.0388923393028655
  0.8949682762051789  0.7787080722537740  0.3089515770654732
  0.8075420674858935  0.8666661245240158  0.4808797886533553
  0.7762836113562600  0.2567780024577639  0.4822940391328913
  0.9872121777068703  0.9827591855016611  0.3991812984243198
  0.4519765436076731  0.2307817185640200  0.2146022444063014
  0.6708147025110803 -0.0003910729424670  0.1247308726546237
  0.3290390453972659  0.3220444710897331  0.1282373304120393
  0.6526111728018515  0.3298227813491990  0.1277464090121107
  0.6384891087140068  0.3012122927150739  0.3994056699016580
  0.7639560766694689  0.5550349430079967  0.2158984284995430
  0.0244953967317661  0.6835558491500355  0.3982945388473105
  0.7892011394295767  0.8869327464070447  0.2160408522342463
  0.1302833823694797  0.9152510696847647  0.4418048707208390
 
  0.00000000E+00  0.00000000E+00  0.00000000E+00
  0.00000000E+00  0.00000000E+00  0.00000000E+00
  0.00000000E+00  0.00000000E+00  0.00000000E+00
  0.00000000E+00  0.00000000E+00  0.00000000E+00
  0.00000000E+00  0.00000000E+00  0.00000000E+00
  0.00000000E+00  0.00000000E+00  0.00000000E+00
  0.00000000E+00  0.00000000E+00  0.00000000E+00
  0.00000000E+00  0.00000000E+00  0.00000000E+00
  0.00000000E+00  0.00000000E+00  0.00000000E+00
  0.00000000E+00  0.00000000E+00  0.00000000E+00
  0.00000000E+00  0.00000000E+00  0.00000000E+00
  0.00000000E+00  0.00000000E+00  0.00000000E+00
  0.00000000E+00  0.00000000E+00  0.00000000E+00
  0.00000000E+00  0.00000000E+00  0.00000000E+00
  0.00000000E+00  0.00000000E+00  0.00000000E+00
  0.00000000E+00  0.00000000E+00  0.00000000E+00
  0.00000000E+00  0.00000000E+00  0.00000000E+00
  0.00000000E+00  0.00000000E+00  0.00000000E+00
  0.00000000E+00  0.00000000E+00  0.00000000E+00
  0.00000000E+00  0.00000000E+00  0.00000000E+00
  0.00000000E+00  0.00000000E+00  0.00000000E+00
  0.00000000E+00  0.00000000E+00  0.00000000E+00
  0.00000000E+00  0.00000000E+00  0.00000000E+00
  0.00000000E+00  0.00000000E+00  0.00000000E+00
  0.00000000E+00  0.00000000E+00  0.00000000E+00
  0.00000000E+00  0.00000000E+00  0.00000000E+00
  0.00000000E+00  0.00000000E+00  0.00000000E+00
  0.00000000E+00  0.00000000E+00  0.00000000E+00
  0.00000000E+00  0.00000000E+00  0.00000000E+00
  0.00000000E+00  0.00000000E+00  0.00000000E+00
  0.00000000E+00  0.00000000E+00  0.00000000E+00
  0.00000000E+00  0.00000000E+00  0.00000000E+00
  0.00000000E+00  0.00000000E+00  0.00000000E+00
  0.00000000E+00  0.00000000E+00  0.00000000E+00
  0.00000000E+00  0.00000000E+00  0.00000000E+00
  0.00000000E+00  0.00000000E+00  0.00000000E+00
  0.00000000E+00  0.00000000E+00  0.00000000E+00
  0.00000000E+00  0.00000000E+00  0.00000000E+00
  0.00000000E+00  0.00000000E+00  0.00000000E+00
  0.00000000E+00  0.00000000E+00  0.00000000E+00
  0.00000000E+00  0.00000000E+00  0.00000000E+00
  0.00000000E+00  0.00000000E+00  0.00000000E+00
  0.00000000E+00  0.00000000E+00  0.00000000E+00
  0.00000000E+00  0.00000000E+00  0.00000000E+00
  0.00000000E+00  0.00000000E+00  0.00000000E+00
  0.00000000E+00  0.00000000E+00  0.00000000E+00
  0.00000000E+00  0.00000000E+00  0.00000000E+00
  0.00000000E+00  0.00000000E+00  0.00000000E+00
  0.00000000E+00  0.00000000E+00  0.00000000E+00
