5L_3x3_(1\1\1)                          
   1.00000000000000     
     8.4506998061999994    0.0000000000000000    0.0000000000000000
    -4.2253499030999997    7.3185207118999998    0.0000000000000000
     0.0000000000000000    0.0000000000000000   24.2000007629000002
   Ir   Pd   Pt   Rh   Ru   H 
     9     9     8     9     9     1
Direct
  0.9962023885838107  0.0040752812002177  0.1258932008485063
  0.1100278195171760  0.2116631116831739  0.2155502057494555
  0.5643918112606794  0.1203439409974231  0.0395958246782961
  0.2429852394394338  0.4533249923378690  0.0408466714214257
  0.5503696349939190  0.4400434666343208  0.0392238091589680
  0.3369937342199915  0.6729666796578768  0.1252236858423173
  0.3320208250195642  0.6718234635287431  0.3937909126192392
  0.5558836874053134  0.7780183139237533  0.0385113723519941
  0.6648184790147824  0.6684312362120995  0.1271923338277402
  0.2222676031789879  0.1158229583058419  0.0344445608587843
  0.2242154609547518  0.1021804188343067  0.3108715748375274
  0.7748232420681437  0.2226095026623936  0.2157905138920272
 -0.0007379018139547  0.3257770812195650  0.4033334155004738
  0.1119147052631173  0.5605640921664319  0.2160540917502100
  0.3377357451853985  0.3349859492281603  0.3994060288424375
  0.8836258864231171  0.4395616423781747  0.0344466094531399
  0.8929294627437279  0.4463613160374693  0.3063035052797601
  0.2284492911463144  0.7790904951777502  0.0342193921928442
  0.8907988276875425  0.1079427620510217  0.3071246153848624
  0.2188804675061334  0.4388380693522551  0.3069342179353818
  0.5592536767051971  0.4386138228991949  0.3054687141023874
  0.4457319912943274  0.5510736306046711  0.2148997400092144
  0.9972597779146732  0.6649603256323248  0.1263763233561381
  0.5553163526897735  0.7814053924271585  0.3046650668092833
  0.4473668206802861  0.8990484076262751  0.2164846707246418
  0.6624254638438830  0.6597305870474933  0.3992029599829232
  0.3392131982451067  0.0073015604025390  0.1288090199329410
  0.5526397698750565  0.1106929747468268  0.3153801969192983
  0.6631707708979200  0.9837290096861425  0.3963801095879452
  0.8753298915878316  0.1029065071448247  0.0371444004904659
  0.0028616100866034  0.3273917199807715  0.1254316474336165
  0.2275426582738838  0.7888639499495097  0.3132465067156261
  0.1047830897391709  0.8926308070497604  0.2150890007557389
  0.8690717581793129  0.7758656747756779  0.0378775235757836
  0.8949838375175393  0.7767809109412707  0.3050975587134617
  0.9771322578477903  0.9665706841042525  0.3938259810832919
  0.4498007210257420  0.2315472283597369  0.2143894869541625
  0.6683350756921993  0.0002214988377458  0.1239393490474417
  0.3316764858436844  0.3238468029402161  0.1277191042174983
  0.6511409982860977  0.3273887406580589  0.1270442264003949
  0.6793411299191481  0.3492678767850074  0.3941519344409803
  0.7659297700356518  0.5548183094153938  0.2135051384221923
  0.0027214793772832  0.6795551421463664  0.3941057208070636
  0.7894051782936073  0.8882088389129476  0.2149180554877289
  0.8955144107461195  0.4559060798881784  0.4339658505118084
 
  0.00000000E+00  0.00000000E+00  0.00000000E+00
  0.00000000E+00  0.00000000E+00  0.00000000E+00
  0.00000000E+00  0.00000000E+00  0.00000000E+00
  0.00000000E+00  0.00000000E+00  0.00000000E+00
  0.00000000E+00  0.00000000E+00  0.00000000E+00
  0.00000000E+00  0.00000000E+00  0.00000000E+00
  0.00000000E+00  0.00000000E+00  0.00000000E+00
  0.00000000E+00  0.00000000E+00  0.00000000E+00
  0.00000000E+00  0.00000000E+00  0.00000000E+00
  0.00000000E+00  0.00000000E+00  0.00000000E+00
  0.00000000E+00  0.00000000E+00  0.00000000E+00
  0.00000000E+00  0.00000000E+00  0.00000000E+00
  0.00000000E+00  0.00000000E+00  0.00000000E+00
  0.00000000E+00  0.00000000E+00  0.00000000E+00
  0.00000000E+00  0.00000000E+00  0.00000000E+00
  0.00000000E+00  0.00000000E+00  0.00000000E+00
  0.00000000E+00  0.00000000E+00  0.00000000E+00
  0.00000000E+00  0.00000000E+00  0.00000000E+00
  0.00000000E+00  0.00000000E+00  0.00000000E+00
  0.00000000E+00  0.00000000E+00  0.00000000E+00
  0.00000000E+00  0.00000000E+00  0.00000000E+00
  0.00000000E+00  0.00000000E+00  0.00000000E+00
  0.00000000E+00  0.00000000E+00  0.00000000E+00
  0.00000000E+00  0.00000000E+00  0.00000000E+00
  0.00000000E+00  0.00000000E+00  0.00000000E+00
  0.00000000E+00  0.00000000E+00  0.00000000E+00
  0.00000000E+00  0.00000000E+00  0.00000000E+00
  0.00000000E+00  0.00000000E+00  0.00000000E+00
  0.00000000E+00  0.00000000E+00  0.00000000E+00
  0.00000000E+00  0.00000000E+00  0.00000000E+00
  0.00000000E+00  0.00000000E+00  0.00000000E+00
  0.00000000E+00  0.00000000E+00  0.00000000E+00
  0.00000000E+00  0.00000000E+00  0.00000000E+00
  0.00000000E+00  0.00000000E+00  0.00000000E+00
  0.00000000E+00  0.00000000E+00  0.00000000E+00
  0.00000000E+00  0.00000000E+00  0.00000000E+00
  0.00000000E+00  0.00000000E+00  0.00000000E+00
  0.00000000E+00  0.00000000E+00  0.00000000E+00
  0.00000000E+00  0.00000000E+00  0.00000000E+00
  0.00000000E+00  0.00000000E+00  0.00000000E+00
  0.00000000E+00  0.00000000E+00  0.00000000E+00
  0.00000000E+00  0.00000000E+00  0.00000000E+00
  0.00000000E+00  0.00000000E+00  0.00000000E+00
  0.00000000E+00  0.00000000E+00  0.00000000E+00
  0.00000000E+00  0.00000000E+00  0.00000000E+00
