step                                    
   1.00000000000000     
     8.4506998061999994    0.0000000000000000    0.0000000000000000
    -4.2253499030999997    7.3185207118999998    0.0000000000000000
     0.0000000000000000    0.0000000000000000   24.2000007629000002
   Ir   Pd   Pt   Rh   Ru   H 
    10     9    10    10     9     1
Direct
  0.9953646114814518  0.0039191038560718  0.1270915837283678
  0.1135510865247872  0.2108407726911509  0.2162152972222392
  0.5651127155610295  0.1204459327014089  0.0404544922606192
  0.2433895791869652  0.4530491612431559  0.0411133797405444
  0.5503946572210354  0.4394220031267744  0.0402514763625642
  0.3356958382645317  0.6710090779417586  0.1255832271312688
  0.3240170866528260  0.6776545551676101  0.3954661769797676
  0.5557200134292045  0.7772111878734060  0.0397579359088187
  0.6670049514254195  0.6692427829036788  0.1283588054131833
  0.8065059841938607  0.9111585398637616  0.4742938956894784
  0.2214634200649624  0.1158428030434371  0.0352590704185438
  0.2227970356697764  0.1093680225406412  0.3069687870222468
  0.7762275034567873  0.2223127440169287  0.2172030342711998
  0.0104112034396319  0.3460868877163521  0.4044724097553878
  0.1086870247364901  0.5564613471674729  0.2168072180989278
  0.3302679088138186  0.3263323072573593  0.4040181111883686
  0.8838367266465553  0.4396508602977967  0.0350398223275640
  0.8858539638909948  0.4460669493910499  0.3113791038165095
  0.2279078304027597  0.7785031237642118  0.0351251725312815
  0.3268913210934334 -0.0009627194319646  0.4008979234663481
  0.8890887881484711  0.1050973474896585  0.3108009609005243
  0.2178104866234639  0.4427191121198553  0.3083462620682867
  0.5598214064264051  0.4386257975557019  0.3077346193257817
  0.4436756659601214  0.5489864734190070  0.2153810963755092
  0.9966955854295295  0.6638296010972579  0.1275623470390922
  0.5571029125848492  0.7827431209734306  0.3067982058012821
  0.4515484043852724  0.8956578670093054  0.2158981159787983
  0.6402291911367997  0.6538508265230071  0.3983486282025820
  0.8029970425742953  0.5678457048397365  0.4766222165575755
  0.3395090881967424  0.0069267423887881  0.1292476444453286
  0.5581897232093849  0.1137974674381844  0.3094531563224591
  0.6367837416520926  0.9913980812569576  0.4010489855478518
  0.8737900670053194  0.1020322213186903  0.0373893390632560
  0.0024579376922522  0.3261526838177045  0.1263839133828498
  0.2160766929191932  0.7767098594874975  0.3071158679486992
  0.1066606587011200  0.8915376317538558  0.2163124189834542
  0.8703427699533449  0.7762824344957816  0.0389844909653223
  0.8949985017604084  0.7788534010488105  0.3085332778928247
  0.7725615111547894  0.2060034986305833  0.4814446345999897
  0.0055561246753649  0.9812864179675641  0.4002082374174364
  0.4534185287274790  0.2324920709390970  0.2145343343345609
  0.6707965017001120  0.0000267831185435  0.1247135596823677
  0.3298411083748213  0.3221033618211003  0.1282087583460500
  0.6541780711463282  0.3292801321913981  0.1280543978898990
  0.6455990683243595  0.3099981526565784  0.4015472374111617
  0.7653414392658739  0.5542898954633192  0.2150591697756066
  0.0235418041103190  0.6857926392807984  0.3984180791456812
  0.7899593107506887  0.8855276430997663  0.2166741559925179
  0.1108971372544655  0.2168172076659522  0.4354589682700192
 
  0.00000000E+00  0.00000000E+00  0.00000000E+00
  0.00000000E+00  0.00000000E+00  0.00000000E+00
  0.00000000E+00  0.00000000E+00  0.00000000E+00
  0.00000000E+00  0.00000000E+00  0.00000000E+00
  0.00000000E+00  0.00000000E+00  0.00000000E+00
  0.00000000E+00  0.00000000E+00  0.00000000E+00
  0.00000000E+00  0.00000000E+00  0.00000000E+00
  0.00000000E+00  0.00000000E+00  0.00000000E+00
  0.00000000E+00  0.00000000E+00  0.00000000E+00
  0.00000000E+00  0.00000000E+00  0.00000000E+00
  0.00000000E+00  0.00000000E+00  0.00000000E+00
  0.00000000E+00  0.00000000E+00  0.00000000E+00
  0.00000000E+00  0.00000000E+00  0.00000000E+00
  0.00000000E+00  0.00000000E+00  0.00000000E+00
  0.00000000E+00  0.00000000E+00  0.00000000E+00
  0.00000000E+00  0.00000000E+00  0.00000000E+00
  0.00000000E+00  0.00000000E+00  0.00000000E+00
  0.00000000E+00  0.00000000E+00  0.00000000E+00
  0.00000000E+00  0.00000000E+00  0.00000000E+00
  0.00000000E+00  0.00000000E+00  0.00000000E+00
  0.00000000E+00  0.00000000E+00  0.00000000E+00
  0.00000000E+00  0.00000000E+00  0.00000000E+00
  0.00000000E+00  0.00000000E+00  0.00000000E+00
  0.00000000E+00  0.00000000E+00  0.00000000E+00
  0.00000000E+00  0.00000000E+00  0.00000000E+00
  0.00000000E+00  0.00000000E+00  0.00000000E+00
  0.00000000E+00  0.00000000E+00  0.00000000E+00
  0.00000000E+00  0.00000000E+00  0.00000000E+00
  0.00000000E+00  0.00000000E+00  0.00000000E+00
  0.00000000E+00  0.00000000E+00  0.00000000E+00
  0.00000000E+00  0.00000000E+00  0.00000000E+00
  0.00000000E+00  0.00000000E+00  0.00000000E+00
  0.00000000E+00  0.00000000E+00  0.00000000E+00
  0.00000000E+00  0.00000000E+00  0.00000000E+00
  0.00000000E+00  0.00000000E+00  0.00000000E+00
  0.00000000E+00  0.00000000E+00  0.00000000E+00
  0.00000000E+00  0.00000000E+00  0.00000000E+00
  0.00000000E+00  0.00000000E+00  0.00000000E+00
  0.00000000E+00  0.00000000E+00  0.00000000E+00
  0.00000000E+00  0.00000000E+00  0.00000000E+00
  0.00000000E+00  0.00000000E+00  0.00000000E+00
  0.00000000E+00  0.00000000E+00  0.00000000E+00
  0.00000000E+00  0.00000000E+00  0.00000000E+00
  0.00000000E+00  0.00000000E+00  0.00000000E+00
  0.00000000E+00  0.00000000E+00  0.00000000E+00
  0.00000000E+00  0.00000000E+00  0.00000000E+00
  0.00000000E+00  0.00000000E+00  0.00000000E+00
  0.00000000E+00  0.00000000E+00  0.00000000E+00
  0.00000000E+00  0.00000000E+00  0.00000000E+00
