5L_3x3_(1\1\1)                          
   1.00000000000000     
     8.4506998061999994    0.0000000000000000    0.0000000000000000
    -4.2253499030999997    7.3185207118999998    0.0000000000000000
     0.0000000000000000    0.0000000000000000   24.2000007629000002
   Ir   Pd   Pt   Rh   Ru
     9     9     8     9     9
Direct
  0.5576628911671972  0.1083434944912462  0.0395129497320233
  0.5429519804266895  0.1021941422356759  0.3088100661345562
  0.7771427478007896  0.2325413437723295  0.2175883888870188
  0.0035232561602360  0.3560706706508772  0.3911881860087085
  0.3259682764504113  0.3312192588379214  0.1263020665419933
  0.8876979892000336  0.4642149077574147  0.3071666237095385
  0.9985603406478130  0.6587359543148452  0.1252775064167190
  0.3316385561695105  0.6510902445461452  0.3912064436611738
  0.8914371593576248  0.7775262346077823  0.3077693486474897
  0.0014792056031265  0.0117816980197478  0.3967621457885702
  0.2266274310650201  0.1150422900221314  0.0315217674441428
  0.3410583100449080  0.0117313101430494  0.4000850280614483
  0.6576839808058056 -0.0088827150680924  0.4004193930020183
  0.2261904209844310  0.4434913890602203  0.3027368127461292
  0.8901031998686815  0.4432997051237870  0.0327026835944684
  0.1066162019377586  0.8836617086979400  0.2157290842911987
  0.4482990910486372  0.8897453624888566  0.2173389262181535
  0.7758116876838013  0.8897242419219897  0.2162644134162829
  0.0039058737801630  0.0056384906566355  0.1257593286918552
  0.8839491712821768  0.1080004715031541  0.3056173432078392
  0.1045776862860072  0.5473580552952357  0.2155135357213743
  0.3344779201824400  0.6678258121882445  0.1274419754469089
  0.5580716328755652  0.7841287055852241  0.0353789117713877
  0.6672603002899778  0.6652116515886076  0.1276314791564682
  0.6524488667957524  0.6541190782200528  0.3939687220636197
  0.8884965720051896  0.7732336208798120  0.0355883620208789
  0.3364753400554746  0.0035830356683419  0.1256469016303324
  0.4431027102294458  0.2295460579645717  0.2175257508896324
  0.8824095701543229  0.1185908139684098  0.0379382511862349
  0.3293953266255570  0.3344249169910765  0.3931632952982014
  0.5445120691615308  0.4376701625765330  0.0377516495014265
  0.5607248651804450  0.4377290794391112  0.3057577318853811
  0.6680203780230699  0.3299178005828788  0.1275450617352596
  0.2280416883364249  0.7762604598104919  0.0374305854197522
  0.2139105540104779  0.7830769560116493  0.3109961112740640
  0.2197133957182257  0.0992579132177719  0.3058785315164235
  0.1256395099039312  0.2318622695022038  0.2161402589882292
  0.6767507639931586  0.0217496674552131  0.1266308261587537
  0.9977646459242295  0.3244449491723131  0.1258676383132329
  0.2256931831311778  0.4440613499026982  0.0411483713128941
  0.4499684286696840  0.5443301128427301  0.2167317541436803
  0.6908517456673876  0.3323265894913106  0.3907985013073204
  0.7664204407830213  0.5444479475456208  0.2160318554260908
  0.5569929003219871  0.7780411657813926  0.3060627291549449
 
  0.00000000E+00  0.00000000E+00  0.00000000E+00
  0.00000000E+00  0.00000000E+00  0.00000000E+00
  0.00000000E+00  0.00000000E+00  0.00000000E+00
  0.00000000E+00  0.00000000E+00  0.00000000E+00
  0.00000000E+00  0.00000000E+00  0.00000000E+00
  0.00000000E+00  0.00000000E+00  0.00000000E+00
  0.00000000E+00  0.00000000E+00  0.00000000E+00
  0.00000000E+00  0.00000000E+00  0.00000000E+00
  0.00000000E+00  0.00000000E+00  0.00000000E+00
  0.00000000E+00  0.00000000E+00  0.00000000E+00
  0.00000000E+00  0.00000000E+00  0.00000000E+00
  0.00000000E+00  0.00000000E+00  0.00000000E+00
  0.00000000E+00  0.00000000E+00  0.00000000E+00
  0.00000000E+00  0.00000000E+00  0.00000000E+00
  0.00000000E+00  0.00000000E+00  0.00000000E+00
  0.00000000E+00  0.00000000E+00  0.00000000E+00
  0.00000000E+00  0.00000000E+00  0.00000000E+00
  0.00000000E+00  0.00000000E+00  0.00000000E+00
  0.00000000E+00  0.00000000E+00  0.00000000E+00
  0.00000000E+00  0.00000000E+00  0.00000000E+00
  0.00000000E+00  0.00000000E+00  0.00000000E+00
  0.00000000E+00  0.00000000E+00  0.00000000E+00
  0.00000000E+00  0.00000000E+00  0.00000000E+00
  0.00000000E+00  0.00000000E+00  0.00000000E+00
  0.00000000E+00  0.00000000E+00  0.00000000E+00
  0.00000000E+00  0.00000000E+00  0.00000000E+00
  0.00000000E+00  0.00000000E+00  0.00000000E+00
  0.00000000E+00  0.00000000E+00  0.00000000E+00
  0.00000000E+00  0.00000000E+00  0.00000000E+00
  0.00000000E+00  0.00000000E+00  0.00000000E+00
  0.00000000E+00  0.00000000E+00  0.00000000E+00
  0.00000000E+00  0.00000000E+00  0.00000000E+00
  0.00000000E+00  0.00000000E+00  0.00000000E+00
  0.00000000E+00  0.00000000E+00  0.00000000E+00
  0.00000000E+00  0.00000000E+00  0.00000000E+00
  0.00000000E+00  0.00000000E+00  0.00000000E+00
  0.00000000E+00  0.00000000E+00  0.00000000E+00
  0.00000000E+00  0.00000000E+00  0.00000000E+00
  0.00000000E+00  0.00000000E+00  0.00000000E+00
  0.00000000E+00  0.00000000E+00  0.00000000E+00
  0.00000000E+00  0.00000000E+00  0.00000000E+00
  0.00000000E+00  0.00000000E+00  0.00000000E+00
  0.00000000E+00  0.00000000E+00  0.00000000E+00
  0.00000000E+00  0.00000000E+00  0.00000000E+00
