total                                   
   1.00000000000000     
     8.4506998061999994    0.0000000000000000    0.0000000000000000
    -4.2253499030999997    7.3185207118999998    0.0000000000000000
     0.0000000000000000    0.0000000000000000   24.2000007629000002
   Ir   Pd   Pt   Rh   Ru   H 
     9     9     9     9     9     1
Direct
  0.9798934453142395  0.0025393797628168  0.0062048358370387
  0.4711239834224352  0.0055801869474776  0.0081661728444534
  0.0656109764177393  0.1931140177416208  0.3187473472546961
  0.6039574371366249  0.7613943061420564  0.2896490750674651
  0.4222822016602072  0.3955438795660020  0.3265222378155367
  0.8348398632210534  0.6774888004262940  0.0427622582158177
  0.2449617357146990  0.0455645200607422  0.3599155314896461
  0.4642800178913577  0.4735196795604289  0.2140128111012563
  0.8920906747613223  0.8425526737706642  0.3525833408273772
  0.6381156326520077  0.8312489951267358  0.1746661227741118
  0.9429597983907652  0.9652926069006758  0.1170805914657547
  0.5006528537844716  0.5444729276140723  0.0891819609790645
  0.1404841523954526  0.8392321489057722  0.1735098619499248
  0.7869621502907324  0.1272894489225036  0.2521123566691991
  0.3365435863996921  0.2295989596557701  0.0087958858491328
  0.6350341798426097  0.3225380406606234  0.0712819085758475
  0.1335147636944974  0.3218095589004018  0.0717569924702969
  0.2846873570466472  0.6082220332432163  0.1562752892048192
  0.9258821595547642  0.9014905904825425  0.2371306667910216
  0.1081439374148241  0.2589721622718635  0.1946590903914625
  0.9599549097259052  0.4857200515209207  0.2159490016434027
  0.0685527314721017  0.6959613781040129  0.3963972363082731
  0.5986193549120282  0.2625602050312941  0.1958890664878104
  0.2453680711254928  0.5487320501371941  0.2757815240113294
  0.2158641206994520  0.4793257751450765  0.3901589734203070
  0.4225645394417953  0.9076589905312561  0.2376766107065047
  0.4659708079569843  0.9662536775707761  0.1172050475720080
  0.1716794336536771  0.8974913211754616  0.0613024912236236
  0.9855205169122445  0.5385944192141876  0.1061807784565952
  0.6189957692883986  0.7909008214000987  0.0081956864359610
  0.2854890785123363  0.6740900011554423  0.0403823930987573
  0.7066944617916143  0.4758001957613847  0.3872428529312880
  0.3950348077198075  0.8418016298193279  0.3536993139397302
  0.9438112620227183  0.4446032218930629  0.0079489863602391
  0.8229399950031628  0.2018458881633371  0.1381287333638233
  0.5735706331164376  0.1970659577223411  0.3171327051856370
  0.7478799261501631  0.5504489325103480  0.2777640501255078
  0.7824583676539455  0.1155362474783227  0.0391600917338259
  0.5787773686529922  0.7096412595167596  0.3951391039029125
  0.2844502879110802  0.1270881554408498  0.2502611333861166
  0.1019506334202622  0.7655334189462161  0.2900645079552922
  0.9195974756892182  0.4002002661358933  0.3305288091312918
  0.3195081370089725  0.1885843722309585  0.1334573570641688
  0.7709759531264821  0.6124136470963445  0.1607822349189364
  0.7422319155170597  0.0385034578889812  0.3623791384241463
  0.6288085035095157  0.5693797947478786  0.4389878956385734
 
  0.00000000E+00  0.00000000E+00  0.00000000E+00
  0.00000000E+00  0.00000000E+00  0.00000000E+00
  0.00000000E+00  0.00000000E+00  0.00000000E+00
  0.00000000E+00  0.00000000E+00  0.00000000E+00
  0.00000000E+00  0.00000000E+00  0.00000000E+00
  0.00000000E+00  0.00000000E+00  0.00000000E+00
  0.00000000E+00  0.00000000E+00  0.00000000E+00
  0.00000000E+00  0.00000000E+00  0.00000000E+00
  0.00000000E+00  0.00000000E+00  0.00000000E+00
  0.00000000E+00  0.00000000E+00  0.00000000E+00
  0.00000000E+00  0.00000000E+00  0.00000000E+00
  0.00000000E+00  0.00000000E+00  0.00000000E+00
  0.00000000E+00  0.00000000E+00  0.00000000E+00
  0.00000000E+00  0.00000000E+00  0.00000000E+00
  0.00000000E+00  0.00000000E+00  0.00000000E+00
  0.00000000E+00  0.00000000E+00  0.00000000E+00
  0.00000000E+00  0.00000000E+00  0.00000000E+00
  0.00000000E+00  0.00000000E+00  0.00000000E+00
  0.00000000E+00  0.00000000E+00  0.00000000E+00
  0.00000000E+00  0.00000000E+00  0.00000000E+00
  0.00000000E+00  0.00000000E+00  0.00000000E+00
  0.00000000E+00  0.00000000E+00  0.00000000E+00
  0.00000000E+00  0.00000000E+00  0.00000000E+00
  0.00000000E+00  0.00000000E+00  0.00000000E+00
  0.00000000E+00  0.00000000E+00  0.00000000E+00
  0.00000000E+00  0.00000000E+00  0.00000000E+00
  0.00000000E+00  0.00000000E+00  0.00000000E+00
  0.00000000E+00  0.00000000E+00  0.00000000E+00
  0.00000000E+00  0.00000000E+00  0.00000000E+00
  0.00000000E+00  0.00000000E+00  0.00000000E+00
  0.00000000E+00  0.00000000E+00  0.00000000E+00
  0.00000000E+00  0.00000000E+00  0.00000000E+00
  0.00000000E+00  0.00000000E+00  0.00000000E+00
  0.00000000E+00  0.00000000E+00  0.00000000E+00
  0.00000000E+00  0.00000000E+00  0.00000000E+00
  0.00000000E+00  0.00000000E+00  0.00000000E+00
  0.00000000E+00  0.00000000E+00  0.00000000E+00
  0.00000000E+00  0.00000000E+00  0.00000000E+00
  0.00000000E+00  0.00000000E+00  0.00000000E+00
  0.00000000E+00  0.00000000E+00  0.00000000E+00
  0.00000000E+00  0.00000000E+00  0.00000000E+00
  0.00000000E+00  0.00000000E+00  0.00000000E+00
  0.00000000E+00  0.00000000E+00  0.00000000E+00
  0.00000000E+00  0.00000000E+00  0.00000000E+00
  0.00000000E+00  0.00000000E+00  0.00000000E+00
  0.00000000E+00  0.00000000E+00  0.00000000E+00
