5L_3x3_(1\1\1)                          
   1.00000000000000     
     8.4506998061999994    0.0000000000000000    0.0000000000000000
    -4.2253499030999997    7.3185207118999998    0.0000000000000000
     0.0000000000000000    0.0000000000000000   24.2000007629000002
   Ir   Pd   Pt   Rh   Ru   H 
     9     9     9     9     9     1
Direct
  0.5552089319921716  0.1110144384239359  0.0388648202440911
  0.5460333969947302  0.1102693627001257  0.3084509932949909
  0.7758827454655414  0.2335640973404592  0.2165622225080773
  0.0038309082587831  0.3489125100125203  0.3954730903086737
  0.3242945720877783  0.3344740597293900  0.1262997796949767
  0.8725869367622375  0.4450422127675149  0.3059459142036757
  0.9971506558799855  0.6600896825877322  0.1253108398332218
  0.3287201367970981  0.6568756927415151  0.3927841635134369
  0.8861241835263365  0.7797680876510226  0.3062735353956786
  0.0013904856071180  0.0078431398757761  0.3984864896932880
  0.2253734523142483  0.1182559412064923  0.0314796496511011
  0.3345558326055426  0.0069356853180822  0.4004832792858323
  0.6599561521858107  0.0010843316990458  0.3999703373653927
  0.2230858629842305  0.4457509993781943  0.3037475271615965
  0.8889336459686665  0.4464543240774637  0.0323197356267213
  0.1050794318261445  0.8864909878700012  0.2156831753009689
  0.4502709409542995  0.8942150641018135  0.2167441871258925
  0.7730098432028825  0.8899289265435322  0.2161387597610588
  0.0023023270880108  0.0085864177148921  0.1257465332591575
  0.8846582002419696  0.1103747604653203  0.3059221548752510
  0.1018976905417913  0.5494758453592705  0.2161661070654802
 -0.0040064519843724  0.6626693052940174  0.3967103867248397
  0.3323070328401840  0.6704741386443331  0.1275422647529073
  0.5560800930265178  0.7852501759634247  0.0350197505706754
  0.6648829048155976  0.6658668142522801  0.1274018902053459
  0.6534101931316247  0.6601148310361495  0.3962394087206600
  0.8873599201798025  0.7760980255086904  0.0357507494489812
  0.3364778487029547  0.0078856576302417  0.1258650957229709
  0.4422632099325827  0.2338471406094506  0.2173431284456391
  0.8821353419177598  0.1214789641179976  0.0372524204116624
  0.3320814947403875  0.3369517725166085  0.3940923951877071
  0.5435184179338761  0.4403490141014126  0.0375491758743598
  0.5547579250628839  0.4416185289799265  0.3060350253553994
  0.6667146808460087  0.3317421666095802  0.1270647320551215
  0.2260871655576618  0.7795501861190315  0.0374367370663137
  0.2264409677184880  0.7919754471139021  0.3075989564522295
  0.2201731723751111  0.1045863569330645  0.3053922126313132
  0.1245115515078301  0.2344078560329486  0.2163434192940498
  0.6762326486005349  0.0246336136502731  0.1249420606394978
  0.9959052654002856  0.3261972125175999  0.1256381630050553
  0.2252448491365837  0.4486017969200767  0.0410132151025943
  0.4500914023844219  0.5482859095419328  0.2165319429696052
  0.6697698829415980  0.3390770906300571  0.3930974711738249
  0.7672952903010332  0.5496073931041293  0.2164492673387338
  0.5522559507824143  0.7780305454698148  0.3067786939958136
  0.9573332338628455  0.3293137491389183  0.4599380306861719
 
  0.00000000E+00  0.00000000E+00  0.00000000E+00
  0.00000000E+00  0.00000000E+00  0.00000000E+00
  0.00000000E+00  0.00000000E+00  0.00000000E+00
  0.00000000E+00  0.00000000E+00  0.00000000E+00
  0.00000000E+00  0.00000000E+00  0.00000000E+00
  0.00000000E+00  0.00000000E+00  0.00000000E+00
  0.00000000E+00  0.00000000E+00  0.00000000E+00
  0.00000000E+00  0.00000000E+00  0.00000000E+00
  0.00000000E+00  0.00000000E+00  0.00000000E+00
  0.00000000E+00  0.00000000E+00  0.00000000E+00
  0.00000000E+00  0.00000000E+00  0.00000000E+00
  0.00000000E+00  0.00000000E+00  0.00000000E+00
  0.00000000E+00  0.00000000E+00  0.00000000E+00
  0.00000000E+00  0.00000000E+00  0.00000000E+00
  0.00000000E+00  0.00000000E+00  0.00000000E+00
  0.00000000E+00  0.00000000E+00  0.00000000E+00
  0.00000000E+00  0.00000000E+00  0.00000000E+00
  0.00000000E+00  0.00000000E+00  0.00000000E+00
  0.00000000E+00  0.00000000E+00  0.00000000E+00
  0.00000000E+00  0.00000000E+00  0.00000000E+00
  0.00000000E+00  0.00000000E+00  0.00000000E+00
  0.00000000E+00  0.00000000E+00  0.00000000E+00
  0.00000000E+00  0.00000000E+00  0.00000000E+00
  0.00000000E+00  0.00000000E+00  0.00000000E+00
  0.00000000E+00  0.00000000E+00  0.00000000E+00
  0.00000000E+00  0.00000000E+00  0.00000000E+00
  0.00000000E+00  0.00000000E+00  0.00000000E+00
  0.00000000E+00  0.00000000E+00  0.00000000E+00
  0.00000000E+00  0.00000000E+00  0.00000000E+00
  0.00000000E+00  0.00000000E+00  0.00000000E+00
  0.00000000E+00  0.00000000E+00  0.00000000E+00
  0.00000000E+00  0.00000000E+00  0.00000000E+00
  0.00000000E+00  0.00000000E+00  0.00000000E+00
  0.00000000E+00  0.00000000E+00  0.00000000E+00
  0.00000000E+00  0.00000000E+00  0.00000000E+00
  0.00000000E+00  0.00000000E+00  0.00000000E+00
  0.00000000E+00  0.00000000E+00  0.00000000E+00
  0.00000000E+00  0.00000000E+00  0.00000000E+00
  0.00000000E+00  0.00000000E+00  0.00000000E+00
  0.00000000E+00  0.00000000E+00  0.00000000E+00
  0.00000000E+00  0.00000000E+00  0.00000000E+00
  0.00000000E+00  0.00000000E+00  0.00000000E+00
  0.00000000E+00  0.00000000E+00  0.00000000E+00
  0.00000000E+00  0.00000000E+00  0.00000000E+00
  0.00000000E+00  0.00000000E+00  0.00000000E+00
  0.00000000E+00  0.00000000E+00  0.00000000E+00
