total                                   
   1.00000000000000     
     8.4506998061999994    0.0000000000000000    0.0000000000000000
    -4.2253499030999997    7.3185207118999998    0.0000000000000000
     0.0000000000000000    0.0000000000000000   24.2000007629000002
   Ir   Pd   Pt   Rh   Ru   H 
     9     9     9     9     9     1
Direct
  0.9858568936507168  0.0061476956039962  0.0064000793003168
  0.4773581583146133  0.0091272096357324  0.0084322111331467
  0.0725252642741126  0.1964638428690549  0.3183908130034009
  0.6108246748607823  0.7645429565456070  0.2910935059570071
  0.4270783591442967  0.3977192838979016  0.3274605813544886
  0.8408002601164061  0.6811855721254571  0.0431375751360805
  0.2517495559893073  0.0490483910370259  0.3602753712777706
  0.4710135837118347  0.4775462347593730  0.2148446023215492
  0.9003632067963018  0.8465425477392841  0.3532839440481084
  0.6437978091223817  0.8337597032330571  0.1748735612836747
  0.9490314144705532  0.9688384826388594  0.1172873917943311
  0.5060762440691362  0.5476283127739140  0.0892133042661770
  0.1456861284830014  0.8417294556355844  0.1736261148321465
  0.7922346551843014  0.1289470253136579  0.2519658251316563
  0.3429000560245630  0.2332763976377299  0.0090101108451311
  0.6411173891632046  0.3261395211031107  0.0716676474161379
  0.1395244323373320  0.3252615650650483  0.0718855477453924
  0.2909583631558275  0.6110708935998156  0.1566190116885985
  0.9313846439225947  0.9040004906290042  0.2372162374289005
  0.1144265258978215  0.2632951103174523  0.1949236480399450
  0.9653882864736509  0.4889747925989542  0.2165281339886057
  0.0760406192338504  0.6981065990978801  0.3966282717371845
  0.6050098428338860  0.2659898552249435  0.1962086910095798
  0.2508133880082060  0.5519302032393834  0.2765524442048979
  0.2219339612252119  0.4809042694761125  0.3911755347901812
  0.4282976745001356  0.9098080707735411  0.2378057886165986
  0.4718585234036209  0.9694748050840056  0.1176070025939589
  0.1779699760253484  0.9015628480969449  0.0615270663200391
  0.9921383775354279  0.5424656856883677  0.1066232500477008
  0.6246730795718084  0.7939494874823473  0.0085261161803273
  0.2910433461763530  0.6776683340509445  0.0404305224158690
  0.7148212081283699  0.4834898747445202  0.3864132664237623
  0.4011203217035404  0.8470351265637384  0.3534442108860985
  0.9500737675744663  0.4485848229306931  0.0084180742005180
  0.8293212038021593  0.2058422088174392  0.1381058371207338
  0.5792794920558276  0.2011726084711564  0.3172561016354388
  0.7532023258426799  0.5527888815187832  0.2794314875342939
  0.7885472728237123  0.1192094953064185  0.0392870160150713
  0.5844631677891214  0.7066974091790466  0.3943932026662031
  0.2897084571707702  0.1285728792545710  0.2494640888140345
  0.1084973150606204  0.7701750480444811  0.2902286709123255
  0.9248689841680023  0.3995244630001652  0.3314684790219901
  0.3256577941792777  0.1923875381497250  0.1340698984112887
  0.7762487098617428  0.6154416236644356  0.1606006349856086
  0.7509485536492539  0.0463571188391897  0.3626219749925754
  0.6650666985138616 -0.0727347244584460  0.4263872114711390
 
  0.00000000E+00  0.00000000E+00  0.00000000E+00
  0.00000000E+00  0.00000000E+00  0.00000000E+00
  0.00000000E+00  0.00000000E+00  0.00000000E+00
  0.00000000E+00  0.00000000E+00  0.00000000E+00
  0.00000000E+00  0.00000000E+00  0.00000000E+00
  0.00000000E+00  0.00000000E+00  0.00000000E+00
  0.00000000E+00  0.00000000E+00  0.00000000E+00
  0.00000000E+00  0.00000000E+00  0.00000000E+00
  0.00000000E+00  0.00000000E+00  0.00000000E+00
  0.00000000E+00  0.00000000E+00  0.00000000E+00
  0.00000000E+00  0.00000000E+00  0.00000000E+00
  0.00000000E+00  0.00000000E+00  0.00000000E+00
  0.00000000E+00  0.00000000E+00  0.00000000E+00
  0.00000000E+00  0.00000000E+00  0.00000000E+00
  0.00000000E+00  0.00000000E+00  0.00000000E+00
  0.00000000E+00  0.00000000E+00  0.00000000E+00
  0.00000000E+00  0.00000000E+00  0.00000000E+00
  0.00000000E+00  0.00000000E+00  0.00000000E+00
  0.00000000E+00  0.00000000E+00  0.00000000E+00
  0.00000000E+00  0.00000000E+00  0.00000000E+00
  0.00000000E+00  0.00000000E+00  0.00000000E+00
  0.00000000E+00  0.00000000E+00  0.00000000E+00
  0.00000000E+00  0.00000000E+00  0.00000000E+00
  0.00000000E+00  0.00000000E+00  0.00000000E+00
  0.00000000E+00  0.00000000E+00  0.00000000E+00
  0.00000000E+00  0.00000000E+00  0.00000000E+00
  0.00000000E+00  0.00000000E+00  0.00000000E+00
  0.00000000E+00  0.00000000E+00  0.00000000E+00
  0.00000000E+00  0.00000000E+00  0.00000000E+00
  0.00000000E+00  0.00000000E+00  0.00000000E+00
  0.00000000E+00  0.00000000E+00  0.00000000E+00
  0.00000000E+00  0.00000000E+00  0.00000000E+00
  0.00000000E+00  0.00000000E+00  0.00000000E+00
  0.00000000E+00  0.00000000E+00  0.00000000E+00
  0.00000000E+00  0.00000000E+00  0.00000000E+00
  0.00000000E+00  0.00000000E+00  0.00000000E+00
  0.00000000E+00  0.00000000E+00  0.00000000E+00
  0.00000000E+00  0.00000000E+00  0.00000000E+00
  0.00000000E+00  0.00000000E+00  0.00000000E+00
  0.00000000E+00  0.00000000E+00  0.00000000E+00
  0.00000000E+00  0.00000000E+00  0.00000000E+00
  0.00000000E+00  0.00000000E+00  0.00000000E+00
  0.00000000E+00  0.00000000E+00  0.00000000E+00
  0.00000000E+00  0.00000000E+00  0.00000000E+00
  0.00000000E+00  0.00000000E+00  0.00000000E+00
  0.00000000E+00  0.00000000E+00  0.00000000E+00
