5L_3x3_(1\1\1)                          
   1.00000000000000     
     8.4506998061999994    0.0000000000000000    0.0000000000000000
    -4.2253499030999997    7.3185207118999998    0.0000000000000000
     0.0000000000000000    0.0000000000000000   24.2000007629000002
   Ir   Pd   Pt   Rh   Ru   H 
     9     9     9     8     9     1
Direct
  0.5535395228638680  0.1092337679619960  0.0390299111624164
  0.5433777076842873  0.1120649394847327  0.3083651137714736
  0.7757167918654418  0.2346283383828925  0.2166522189987555
  0.0016310461018949  0.3538856733957838  0.3947185950407650
  0.3219266040136299  0.3322348812531919  0.1264122406624866
  0.8744156312249239  0.4520812665978177  0.3046095597701314
  0.9944382351768457  0.6590874402324931  0.1264094318422461
  0.3249656061040926  0.6625248252269438  0.3914661024823589
  0.8839716719099465  0.7817455653913870  0.3065854216000257
  0.0072021865672631  0.0181232022306754  0.3968933333374635
  0.2227175976029416  0.1159076834001227  0.0317307185221610
  0.3379249767115554  0.0074947709832625  0.3988384666312527
  0.6629886537911684  0.0021876465783838  0.3996297877142853
  0.2288273857303215  0.4373089940774754  0.3071346870633587
  0.8874888854484124  0.4451202106039396  0.0325885295097504
  0.1020195184596651  0.8829882033083889  0.2157555470578716
  0.4501305245607145  0.8944309735292352  0.2168034065847292
  0.7702976718755934  0.8891816393968400  0.2163380097354680
 -0.0003937716891483  0.0074088994075043  0.1260424366169170
  0.8850611481287464  0.1131389787055969  0.3059679746271287
  0.1028796905393625  0.5477640952987788  0.2167617481298419
 -0.0036947758240601  0.6704597259086305  0.3964512410646361
  0.3304248024049543  0.6691556651444691  0.1279372531642361
  0.5533224145284027  0.7827270554587906  0.0352255077987512
  0.6609664942610616  0.6644613243277638  0.1277078862571897
  0.6490836898556204  0.6527913366197921  0.3949248338513537
  0.8854357224671028  0.7730492314596401  0.0365191587219165
  0.3338789712791871  0.0059656935573142  0.1256804054034622
  0.4423191895506319  0.2339064333579095  0.2171821711684526
  0.8801579305937440  0.1197102622839104  0.0374842766142490
  0.5416761423796219  0.4384144013942667  0.0376593467952731
  0.5514939066725882  0.4388977542946780  0.3064851030482386
  0.6636066967124532  0.3294297759426180  0.1268884896203817
  0.2222986176442087  0.7747448926970381  0.0375953057052384
  0.2248770257065415  0.7884274044669123  0.3067873359157576
  0.2179419751611158  0.0995501641341415  0.3030708710244573
  0.1228098355180397  0.2351315391242148  0.2169416049805299
  0.6739700942664626  0.0232962111629042  0.1251775656047307
  0.9936073339483948  0.3243363977946236  0.1258807676452211
  0.2228339912158201  0.4472884404187269  0.0411527004170527
  0.4451066230246710  0.5454511430362696  0.2171256955945462
  0.6840440692343487  0.3392799833417357  0.3926403924336950
  0.7649046842841485  0.5483454454080422  0.2157713571859879
  0.5494041999960030  0.7738537581457803  0.3078214842544670
  0.0074909641565449  0.3619184381882984  0.4607973468829454
 
  0.00000000E+00  0.00000000E+00  0.00000000E+00
  0.00000000E+00  0.00000000E+00  0.00000000E+00
  0.00000000E+00  0.00000000E+00  0.00000000E+00
  0.00000000E+00  0.00000000E+00  0.00000000E+00
  0.00000000E+00  0.00000000E+00  0.00000000E+00
  0.00000000E+00  0.00000000E+00  0.00000000E+00
  0.00000000E+00  0.00000000E+00  0.00000000E+00
  0.00000000E+00  0.00000000E+00  0.00000000E+00
  0.00000000E+00  0.00000000E+00  0.00000000E+00
  0.00000000E+00  0.00000000E+00  0.00000000E+00
  0.00000000E+00  0.00000000E+00  0.00000000E+00
  0.00000000E+00  0.00000000E+00  0.00000000E+00
  0.00000000E+00  0.00000000E+00  0.00000000E+00
  0.00000000E+00  0.00000000E+00  0.00000000E+00
  0.00000000E+00  0.00000000E+00  0.00000000E+00
  0.00000000E+00  0.00000000E+00  0.00000000E+00
  0.00000000E+00  0.00000000E+00  0.00000000E+00
  0.00000000E+00  0.00000000E+00  0.00000000E+00
  0.00000000E+00  0.00000000E+00  0.00000000E+00
  0.00000000E+00  0.00000000E+00  0.00000000E+00
  0.00000000E+00  0.00000000E+00  0.00000000E+00
  0.00000000E+00  0.00000000E+00  0.00000000E+00
  0.00000000E+00  0.00000000E+00  0.00000000E+00
  0.00000000E+00  0.00000000E+00  0.00000000E+00
  0.00000000E+00  0.00000000E+00  0.00000000E+00
  0.00000000E+00  0.00000000E+00  0.00000000E+00
  0.00000000E+00  0.00000000E+00  0.00000000E+00
  0.00000000E+00  0.00000000E+00  0.00000000E+00
  0.00000000E+00  0.00000000E+00  0.00000000E+00
  0.00000000E+00  0.00000000E+00  0.00000000E+00
  0.00000000E+00  0.00000000E+00  0.00000000E+00
  0.00000000E+00  0.00000000E+00  0.00000000E+00
  0.00000000E+00  0.00000000E+00  0.00000000E+00
  0.00000000E+00  0.00000000E+00  0.00000000E+00
  0.00000000E+00  0.00000000E+00  0.00000000E+00
  0.00000000E+00  0.00000000E+00  0.00000000E+00
  0.00000000E+00  0.00000000E+00  0.00000000E+00
  0.00000000E+00  0.00000000E+00  0.00000000E+00
  0.00000000E+00  0.00000000E+00  0.00000000E+00
  0.00000000E+00  0.00000000E+00  0.00000000E+00
  0.00000000E+00  0.00000000E+00  0.00000000E+00
  0.00000000E+00  0.00000000E+00  0.00000000E+00
  0.00000000E+00  0.00000000E+00  0.00000000E+00
  0.00000000E+00  0.00000000E+00  0.00000000E+00
  0.00000000E+00  0.00000000E+00  0.00000000E+00
