total                                   
   1.00000000000000     
     8.4506998061999994    0.0000000000000000    0.0000000000000000
    -4.2253499030999997    7.3185207118999998    0.0000000000000000
     0.0000000000000000    0.0000000000000000   24.2000007629000002
   Ir   Pd   Pt   Rh   Ru   H 
     9     9     9     9     9     1
Direct
  0.9779322932097834  0.0016981606653572  0.0054758923380750
  0.4696558514625149  0.0046681104192877  0.0080114972397126
  0.0615329279520243  0.1896853243119188  0.3178992309698953
  0.6016393209932426  0.7573565159881317  0.2892772837632023
  0.4183256633236695  0.3942732407935199  0.3262949343002322
  0.8327915270821984  0.6763477980881512  0.0419537408030795
  0.2418091197427246  0.0447082906894009  0.3599193675734149
  0.4607051186924645  0.4722368701821685  0.2140186406496223
  0.8896014612859688  0.8395148882912070  0.3531875333970874
  0.6354906128835652  0.8292420244006438  0.1739172793973819
  0.9404253913666657  0.9638995700003398  0.1163199908382375
  0.4986675328831192  0.5430795338503950  0.0886457999704009
  0.1369472148806860  0.8373564358621537  0.1729869924470462
  0.7833303772093104  0.1247986343908010  0.2513764871309619
  0.3348717033391879  0.2285150809314747  0.0085835289066779
  0.6335088665691317  0.3215690555136093  0.0709890186463952
  0.1316424376506248  0.3208279429232621  0.0713545429056699
  0.2825335085360749  0.6066136766687501  0.1556159917955993
  0.9227277982131128  0.8997546806821184  0.2364676970933994
  0.1055798003795195  0.2578076978179932  0.1941702799858428
  0.9581788087041854  0.4844740363215039  0.2157653740854042
  0.0682451910891671  0.6942702676761797  0.3964236465030210
  0.5963709204128413  0.2615329942213021  0.1957447660615105
  0.2401045778461170  0.5454891667419344  0.2772353359279398
  0.2140916087239351  0.4783957517780551  0.3915212406850159
  0.4189277721611708  0.9038414211858914  0.2370705115444284
  0.4629896579700408  0.9652645878819902  0.1171828133846840
  0.1695857469653421  0.8964362811001294  0.0606903213316588
  0.9835928929716176  0.5385121832566114  0.1058954739449170
  0.6164071128090670  0.7893012358010805  0.0077812520723432
  0.2825679862722173  0.6727727664145370  0.0395942344747272
  0.7059331523343310  0.4792484007195397  0.3852484239996948
  0.3950609306854745  0.8471748868623766  0.3525299993573905
  0.9423704796888930  0.4441008943193621  0.0077081499086481
  0.8206881465588447  0.2008796115353161  0.1376353084484326
  0.5687952786331744  0.1944170386123611  0.3169161119660603
  0.7434138569651655  0.5459710009594368  0.2781096077395539
  0.7808930026728891  0.1144906350241631  0.0387298074165934
  0.5760751259178269  0.7084653232504837  0.3935056365453677
  0.2810615014193100  0.1241615481641785  0.2494539992047665
  0.0983856360503772  0.7646810353796978  0.2894954611738840
  0.9148955337258261  0.3946161238568216  0.3308212199352175
  0.3170848697278967  0.1873102407041052  0.1332669634088322
  0.7679368098781799  0.6107764796878338  0.1604314742526938
  0.7390721725887851  0.0361013024405692  0.3612556818845399
  0.2022226315717327  0.4593812846338602  0.4563315155907249
 
  0.00000000E+00  0.00000000E+00  0.00000000E+00
  0.00000000E+00  0.00000000E+00  0.00000000E+00
  0.00000000E+00  0.00000000E+00  0.00000000E+00
  0.00000000E+00  0.00000000E+00  0.00000000E+00
  0.00000000E+00  0.00000000E+00  0.00000000E+00
  0.00000000E+00  0.00000000E+00  0.00000000E+00
  0.00000000E+00  0.00000000E+00  0.00000000E+00
  0.00000000E+00  0.00000000E+00  0.00000000E+00
  0.00000000E+00  0.00000000E+00  0.00000000E+00
  0.00000000E+00  0.00000000E+00  0.00000000E+00
  0.00000000E+00  0.00000000E+00  0.00000000E+00
  0.00000000E+00  0.00000000E+00  0.00000000E+00
  0.00000000E+00  0.00000000E+00  0.00000000E+00
  0.00000000E+00  0.00000000E+00  0.00000000E+00
  0.00000000E+00  0.00000000E+00  0.00000000E+00
  0.00000000E+00  0.00000000E+00  0.00000000E+00
  0.00000000E+00  0.00000000E+00  0.00000000E+00
  0.00000000E+00  0.00000000E+00  0.00000000E+00
  0.00000000E+00  0.00000000E+00  0.00000000E+00
  0.00000000E+00  0.00000000E+00  0.00000000E+00
  0.00000000E+00  0.00000000E+00  0.00000000E+00
  0.00000000E+00  0.00000000E+00  0.00000000E+00
  0.00000000E+00  0.00000000E+00  0.00000000E+00
  0.00000000E+00  0.00000000E+00  0.00000000E+00
  0.00000000E+00  0.00000000E+00  0.00000000E+00
  0.00000000E+00  0.00000000E+00  0.00000000E+00
  0.00000000E+00  0.00000000E+00  0.00000000E+00
  0.00000000E+00  0.00000000E+00  0.00000000E+00
  0.00000000E+00  0.00000000E+00  0.00000000E+00
  0.00000000E+00  0.00000000E+00  0.00000000E+00
  0.00000000E+00  0.00000000E+00  0.00000000E+00
  0.00000000E+00  0.00000000E+00  0.00000000E+00
  0.00000000E+00  0.00000000E+00  0.00000000E+00
  0.00000000E+00  0.00000000E+00  0.00000000E+00
  0.00000000E+00  0.00000000E+00  0.00000000E+00
  0.00000000E+00  0.00000000E+00  0.00000000E+00
  0.00000000E+00  0.00000000E+00  0.00000000E+00
  0.00000000E+00  0.00000000E+00  0.00000000E+00
  0.00000000E+00  0.00000000E+00  0.00000000E+00
  0.00000000E+00  0.00000000E+00  0.00000000E+00
  0.00000000E+00  0.00000000E+00  0.00000000E+00
  0.00000000E+00  0.00000000E+00  0.00000000E+00
  0.00000000E+00  0.00000000E+00  0.00000000E+00
  0.00000000E+00  0.00000000E+00  0.00000000E+00
  0.00000000E+00  0.00000000E+00  0.00000000E+00
  0.00000000E+00  0.00000000E+00  0.00000000E+00
