total                                   
   1.00000000000000     
     8.4506998061999994    0.0000000000000000    0.0000000000000000
    -4.2253499030999997    7.3185207118999998    0.0000000000000000
     0.0000000000000000    0.0000000000000000   24.2000007629000002
   Ir   Pd   Pt   Rh   Ru   H 
     9     9     9     9     9     1
Direct
  0.9813258979346634  0.0047637050471818  0.0057427719840437
  0.4728399483160116  0.0076856376218504  0.0081252345293816
  0.0666626737660725  0.1978745945839530  0.3182840097085596
  0.6068467254568692  0.7641555653151522  0.2899652021414507
  0.4233106822945208  0.4001574596000683  0.3260742742974911
  0.8366502062789156  0.6797302304195201  0.0423106965617619
  0.2471238199229414  0.0508770658233619  0.3598709370852462
  0.4661906296817038  0.4778370830677069  0.2140433768403021
  0.8939021392419936  0.8454546688746558  0.3533691163941341
  0.6399800878785078  0.8341984237443977  0.1746379164088341
  0.9439730681080669  0.9678075848368329  0.1165438566530449
  0.5020709024395813  0.5464448237983118  0.0889461919340902
  0.1410561763337633  0.8421384017077181  0.1733760592531526
  0.7884043529770219  0.1308278933479116  0.2520894882712153
  0.3383219868882068  0.2317430534773798  0.0086231771984916
  0.6370124925093283  0.3248269684390102  0.0711421498332983
  0.1349697706578455  0.3240579109163948  0.0713782003140049
  0.2866031230449940  0.6114514010258393  0.1558686637842431
  0.9278605264492621  0.9060042514628214  0.2370639387767627
  0.1108047513000636  0.2625952375350663  0.1942099865299410
  0.9618154976942382  0.4893601220063891  0.2159936319236565
  0.0738750117749384  0.7007700837758346  0.3962227482628481
  0.6003106377113047  0.2663345534810466  0.1959411660064299
  0.2463366662526822  0.5524806759745798  0.2758258280026374
  0.2199647104808385  0.4813044948249596  0.3918607848641481
  0.4241399561648223  0.9105806637438009  0.2374371720782150
  0.4675291685414323  0.9691711311822390  0.1173522064351022
  0.1733797026657059  0.8998824156296146  0.0611050066810099
  0.9871863294972507  0.5413183561591626  0.1060984339755499
  0.6198098527689797  0.7920888780789637  0.0080526906109076
  0.2863560075081290  0.6760341711254957  0.0399568409669880
  0.7106531462233521  0.4855269628605388  0.3852785733807571
  0.4004440438023330  0.8520810347913702  0.3528810683055828
  0.9453506787240641  0.4465679749996652  0.0079363436097648
  0.8247306902272900  0.2050530536972835  0.1382768593127661
  0.5749934062469643  0.2015359482287372  0.3171887901835827
  0.7487774065854860  0.5532562602279246  0.2782791184949124
  0.7837935600064699  0.1168407548313075  0.0392857433931691
  0.5829193138366415  0.7161183083119964  0.3954874912118111
  0.2860909318043695  0.1304869559300685  0.2502411031831962
  0.1036095491895838  0.7701325818644426  0.2898125469274657
  0.9225211355047498  0.4029750253004538  0.3316987595972176
  0.3211911015205616  0.1910569068830217  0.1330772751319448
  0.7723388799775840  0.6154198752733903  0.1602785365817799
  0.7444668634109721  0.0430220367811633  0.3622398377243651
  0.3752757473989222  0.5784588643914220  0.4433362556547269
 
  0.00000000E+00  0.00000000E+00  0.00000000E+00
  0.00000000E+00  0.00000000E+00  0.00000000E+00
  0.00000000E+00  0.00000000E+00  0.00000000E+00
  0.00000000E+00  0.00000000E+00  0.00000000E+00
  0.00000000E+00  0.00000000E+00  0.00000000E+00
  0.00000000E+00  0.00000000E+00  0.00000000E+00
  0.00000000E+00  0.00000000E+00  0.00000000E+00
  0.00000000E+00  0.00000000E+00  0.00000000E+00
  0.00000000E+00  0.00000000E+00  0.00000000E+00
  0.00000000E+00  0.00000000E+00  0.00000000E+00
  0.00000000E+00  0.00000000E+00  0.00000000E+00
  0.00000000E+00  0.00000000E+00  0.00000000E+00
  0.00000000E+00  0.00000000E+00  0.00000000E+00
  0.00000000E+00  0.00000000E+00  0.00000000E+00
  0.00000000E+00  0.00000000E+00  0.00000000E+00
  0.00000000E+00  0.00000000E+00  0.00000000E+00
  0.00000000E+00  0.00000000E+00  0.00000000E+00
  0.00000000E+00  0.00000000E+00  0.00000000E+00
  0.00000000E+00  0.00000000E+00  0.00000000E+00
  0.00000000E+00  0.00000000E+00  0.00000000E+00
  0.00000000E+00  0.00000000E+00  0.00000000E+00
  0.00000000E+00  0.00000000E+00  0.00000000E+00
  0.00000000E+00  0.00000000E+00  0.00000000E+00
  0.00000000E+00  0.00000000E+00  0.00000000E+00
  0.00000000E+00  0.00000000E+00  0.00000000E+00
  0.00000000E+00  0.00000000E+00  0.00000000E+00
  0.00000000E+00  0.00000000E+00  0.00000000E+00
  0.00000000E+00  0.00000000E+00  0.00000000E+00
  0.00000000E+00  0.00000000E+00  0.00000000E+00
  0.00000000E+00  0.00000000E+00  0.00000000E+00
  0.00000000E+00  0.00000000E+00  0.00000000E+00
  0.00000000E+00  0.00000000E+00  0.00000000E+00
  0.00000000E+00  0.00000000E+00  0.00000000E+00
  0.00000000E+00  0.00000000E+00  0.00000000E+00
  0.00000000E+00  0.00000000E+00  0.00000000E+00
  0.00000000E+00  0.00000000E+00  0.00000000E+00
  0.00000000E+00  0.00000000E+00  0.00000000E+00
  0.00000000E+00  0.00000000E+00  0.00000000E+00
  0.00000000E+00  0.00000000E+00  0.00000000E+00
  0.00000000E+00  0.00000000E+00  0.00000000E+00
  0.00000000E+00  0.00000000E+00  0.00000000E+00
  0.00000000E+00  0.00000000E+00  0.00000000E+00
  0.00000000E+00  0.00000000E+00  0.00000000E+00
  0.00000000E+00  0.00000000E+00  0.00000000E+00
  0.00000000E+00  0.00000000E+00  0.00000000E+00
  0.00000000E+00  0.00000000E+00  0.00000000E+00
