5L_3x3_(1\1\1)                          
   1.00000000000000     
     8.4506998061999994    0.0000000000000000    0.0000000000000000
    -4.2253499030999997    7.3185207118999998    0.0000000000000000
     0.0000000000000000    0.0000000000000000   24.2000007629000002
   Ir   Pd   Pt   Rh   Ru   H 
     9     9     9     9     8     1
Direct
  0.9936049864710873  0.0020866720904922  0.1259526443785398
  0.1090373496210680  0.2081654583938528  0.2152283360033115
  0.5619300184476488  0.1176364570168502  0.0402268002052023
  0.2405195622510226  0.4518934784701120  0.0403725995041098
  0.5475732247623140  0.4368860664794180  0.0393909126351721
  0.3316038146350710  0.6674925495188382  0.1254644053988276
  0.3415604599470928  0.6757562846085456  0.3933358633866123
  0.5521370131931077  0.7769069484010570  0.0395410480132347
  0.6621024348668220  0.6649729989288509  0.1279202671382107
  0.2184752480468457  0.1135937763207541  0.0344941359549395
  0.2185238496171963  0.1053081965828072  0.3069154471793508
  0.7720687535202665  0.2216991047795319  0.2155754406005496
 -0.0058021485174223  0.3276970529086835  0.4016380960041169
  0.1045057391073409  0.5552288807594745  0.2168844433521490
  0.3256265614697692  0.3262908238964585  0.4016788880812071
  0.8804023383528599  0.4370181810195332  0.0344430637086959
  0.8868725645265679  0.4525695287609438  0.3118356974924858
  0.2249746063021966  0.7762939895149867  0.0345634288592408
  0.3275118861364259 -0.0077180661439093  0.3984024983972184
  0.8859178382242132  0.1105119672604407  0.3065379434157251
  0.2149827582359748  0.4423085942374297  0.3077978731745822
  0.5567770892990377  0.4393474577248882  0.3065800282170949
  0.4405044328612013  0.5474043947770518  0.2152448554164060
  0.9929031274635914  0.6608444277360628  0.1268710542238803
  0.5580721988739188  0.7804837192645443  0.3043263538705024
  0.4418707624467823  0.8932511009040125  0.2157150133481384
  0.6588938325072476  0.6631406297029475  0.3989132156782995
  0.3348848984306193  0.0052227484938456  0.1286503774483553
  0.5520848853343844  0.1103475030878634  0.3074392845344185
  0.6604455955245913 -0.0031069689760867  0.3968984493211554
  0.8702735865570448  0.0987931647751545  0.0375492330805043
  0.0005489870062760  0.3252256652746794  0.1256243172277266
  0.2115064019813238  0.7716459274628465  0.3108911354172129
  0.1008114014801881  0.8874127688894813  0.2157059289645601
  0.8661641131688289  0.7741030701029600  0.0383011583489992
  0.8956431929603413  0.7795982094135326  0.3086687321996963
  0.9814267292843146  0.9893321764040225  0.3940619054980160
  0.4498469587961090  0.2290167896817846  0.2144208156306606
  0.6659368531874872  0.9949539760191526  0.1257763319857888
  0.3281784557742563  0.3228996826486721  0.1274651062460218
  0.6493538969582078  0.3275900058150900  0.1271695905765344
  0.6411655089958584  0.3066355503391315  0.3955040917227994
  0.7634816542349625  0.5528771329118396  0.2146699617252084
  0.7886773721788684  0.8857808984823303  0.2155594897907688
  0.7383953469094198  0.5370980786800164  0.4308082140806491
 
  0.00000000E+00  0.00000000E+00  0.00000000E+00
  0.00000000E+00  0.00000000E+00  0.00000000E+00
  0.00000000E+00  0.00000000E+00  0.00000000E+00
  0.00000000E+00  0.00000000E+00  0.00000000E+00
  0.00000000E+00  0.00000000E+00  0.00000000E+00
  0.00000000E+00  0.00000000E+00  0.00000000E+00
  0.00000000E+00  0.00000000E+00  0.00000000E+00
  0.00000000E+00  0.00000000E+00  0.00000000E+00
  0.00000000E+00  0.00000000E+00  0.00000000E+00
  0.00000000E+00  0.00000000E+00  0.00000000E+00
  0.00000000E+00  0.00000000E+00  0.00000000E+00
  0.00000000E+00  0.00000000E+00  0.00000000E+00
  0.00000000E+00  0.00000000E+00  0.00000000E+00
  0.00000000E+00  0.00000000E+00  0.00000000E+00
  0.00000000E+00  0.00000000E+00  0.00000000E+00
  0.00000000E+00  0.00000000E+00  0.00000000E+00
  0.00000000E+00  0.00000000E+00  0.00000000E+00
  0.00000000E+00  0.00000000E+00  0.00000000E+00
  0.00000000E+00  0.00000000E+00  0.00000000E+00
  0.00000000E+00  0.00000000E+00  0.00000000E+00
  0.00000000E+00  0.00000000E+00  0.00000000E+00
  0.00000000E+00  0.00000000E+00  0.00000000E+00
  0.00000000E+00  0.00000000E+00  0.00000000E+00
  0.00000000E+00  0.00000000E+00  0.00000000E+00
  0.00000000E+00  0.00000000E+00  0.00000000E+00
  0.00000000E+00  0.00000000E+00  0.00000000E+00
  0.00000000E+00  0.00000000E+00  0.00000000E+00
  0.00000000E+00  0.00000000E+00  0.00000000E+00
  0.00000000E+00  0.00000000E+00  0.00000000E+00
  0.00000000E+00  0.00000000E+00  0.00000000E+00
  0.00000000E+00  0.00000000E+00  0.00000000E+00
  0.00000000E+00  0.00000000E+00  0.00000000E+00
  0.00000000E+00  0.00000000E+00  0.00000000E+00
  0.00000000E+00  0.00000000E+00  0.00000000E+00
  0.00000000E+00  0.00000000E+00  0.00000000E+00
  0.00000000E+00  0.00000000E+00  0.00000000E+00
  0.00000000E+00  0.00000000E+00  0.00000000E+00
  0.00000000E+00  0.00000000E+00  0.00000000E+00
  0.00000000E+00  0.00000000E+00  0.00000000E+00
  0.00000000E+00  0.00000000E+00  0.00000000E+00
  0.00000000E+00  0.00000000E+00  0.00000000E+00
  0.00000000E+00  0.00000000E+00  0.00000000E+00
  0.00000000E+00  0.00000000E+00  0.00000000E+00
  0.00000000E+00  0.00000000E+00  0.00000000E+00
  0.00000000E+00  0.00000000E+00  0.00000000E+00
