5L_3x3_(1\1\1)                          
   1.00000000000000     
     8.4506998061999994    0.0000000000000000    0.0000000000000000
    -4.2253499030999997    7.3185207118999998    0.0000000000000000
     0.0000000000000000    0.0000000000000000   24.2000007629000002
   Ir   Pd   Pt   Rh   Ru   H 
     9     8     9     9     9     1
Direct
  0.5572165255432607  0.1083614992807664  0.0396912215628137
  0.5463578651599084  0.1098338184966605  0.3098501376524304
  0.7789063420879795  0.2294020866116137  0.2170703882501024
  0.0047291761766900  0.3459878877130714  0.3936087427406061
  0.3252470708514434  0.3300371478079185  0.1270078639980574
  0.8749415482731205  0.4382068099801523  0.3064106580183149
  0.9980255263019718  0.6582564479900854  0.1260172980248937
  0.3290358940346906  0.6471749183769838  0.3922010284941439
  0.8941661170520484  0.7798004777594483  0.3071392286569707
  0.0052103648486649  0.0092874111352943  0.3979989669161252
  0.2259818750852840  0.1144620027480288  0.0323999791539120
  0.6526091629942748 -0.0014773586619771  0.4010015770620327
  0.2242738385261736  0.4414019209101263  0.3033745020243988
  0.8900131079017007  0.4430189922368332  0.0333857578094863
  0.1089704353938319  0.8853268479643982  0.2169571170026742
  0.4500170014537541  0.8910294758772691  0.2178095687330675
  0.7739396223706941  0.8851741596953563  0.2171350607945849
  0.0025663159760657  0.0034113904901546  0.1265632970194955
  0.8852683226575382  0.1047048871445386  0.3067360381057396
  0.1038079938187984  0.5493298914625060  0.2168373601032332
  0.0003482933643173  0.6584916677281641  0.3964981146752763
  0.3337229639606902  0.6675373144491031  0.1284113794661285
  0.5562845045427739  0.7824063154408175  0.0358679294311380
  0.6656297702030977  0.6627890440631518  0.1282205743882072
  0.6563894117140463  0.6620094687293000  0.3962084155750821
  0.8880771148573784  0.7723671748950417  0.0362356908126696
  0.3374703390780936  0.0041337310261843  0.1267047376869819
  0.4452407537813928  0.2318421773063238  0.2178626562043294
  0.8845055364869161  0.1194476318707602  0.0384343355129855
  0.3403864706736285  0.3388243796360469  0.3939329813036050
  0.5439507258780893  0.4364419929011091  0.0383664927064291
  0.5584873915798743  0.4394647425998684  0.3057789513499030
  0.6682963973847565  0.3282978833772434  0.1277286566895389
  0.2261646175362094  0.7747546930509903  0.0381914640610593
  0.2372616480832267  0.8020582085641829  0.3127672385682749
  0.2279285298103704  0.1036736913241938  0.3086359946780455
  0.1241565783190356  0.2296853999331376  0.2165982898871550
  0.6770321458652606  0.0201447740989004  0.1254779657832308
  0.9969916861784127  0.3220746830296548  0.1275002872973360
  0.2260453121890042  0.4450646474206717  0.0417598140676634
  0.4476896757959649  0.5421600175246539  0.2173556429193435
  0.6763527815489534  0.3500237152710184  0.3945038707306663
  0.7704363965183173  0.5473424141822493  0.2172405165616250
  0.5543225190497704  0.7822289796071468  0.3075072967659071
  0.5662435888951510  0.1388941723522583  0.4261488422795621
 
  0.00000000E+00  0.00000000E+00  0.00000000E+00
  0.00000000E+00  0.00000000E+00  0.00000000E+00
  0.00000000E+00  0.00000000E+00  0.00000000E+00
  0.00000000E+00  0.00000000E+00  0.00000000E+00
  0.00000000E+00  0.00000000E+00  0.00000000E+00
  0.00000000E+00  0.00000000E+00  0.00000000E+00
  0.00000000E+00  0.00000000E+00  0.00000000E+00
  0.00000000E+00  0.00000000E+00  0.00000000E+00
  0.00000000E+00  0.00000000E+00  0.00000000E+00
  0.00000000E+00  0.00000000E+00  0.00000000E+00
  0.00000000E+00  0.00000000E+00  0.00000000E+00
  0.00000000E+00  0.00000000E+00  0.00000000E+00
  0.00000000E+00  0.00000000E+00  0.00000000E+00
  0.00000000E+00  0.00000000E+00  0.00000000E+00
  0.00000000E+00  0.00000000E+00  0.00000000E+00
  0.00000000E+00  0.00000000E+00  0.00000000E+00
  0.00000000E+00  0.00000000E+00  0.00000000E+00
  0.00000000E+00  0.00000000E+00  0.00000000E+00
  0.00000000E+00  0.00000000E+00  0.00000000E+00
  0.00000000E+00  0.00000000E+00  0.00000000E+00
  0.00000000E+00  0.00000000E+00  0.00000000E+00
  0.00000000E+00  0.00000000E+00  0.00000000E+00
  0.00000000E+00  0.00000000E+00  0.00000000E+00
  0.00000000E+00  0.00000000E+00  0.00000000E+00
  0.00000000E+00  0.00000000E+00  0.00000000E+00
  0.00000000E+00  0.00000000E+00  0.00000000E+00
  0.00000000E+00  0.00000000E+00  0.00000000E+00
  0.00000000E+00  0.00000000E+00  0.00000000E+00
  0.00000000E+00  0.00000000E+00  0.00000000E+00
  0.00000000E+00  0.00000000E+00  0.00000000E+00
  0.00000000E+00  0.00000000E+00  0.00000000E+00
  0.00000000E+00  0.00000000E+00  0.00000000E+00
  0.00000000E+00  0.00000000E+00  0.00000000E+00
  0.00000000E+00  0.00000000E+00  0.00000000E+00
  0.00000000E+00  0.00000000E+00  0.00000000E+00
  0.00000000E+00  0.00000000E+00  0.00000000E+00
  0.00000000E+00  0.00000000E+00  0.00000000E+00
  0.00000000E+00  0.00000000E+00  0.00000000E+00
  0.00000000E+00  0.00000000E+00  0.00000000E+00
  0.00000000E+00  0.00000000E+00  0.00000000E+00
  0.00000000E+00  0.00000000E+00  0.00000000E+00
  0.00000000E+00  0.00000000E+00  0.00000000E+00
  0.00000000E+00  0.00000000E+00  0.00000000E+00
  0.00000000E+00  0.00000000E+00  0.00000000E+00
  0.00000000E+00  0.00000000E+00  0.00000000E+00
