step                                    
   1.00000000000000     
     8.4506998061999994    0.0000000000000000    0.0000000000000000
    -4.2253499030999997    7.3185207118999998    0.0000000000000000
     0.0000000000000000    0.0000000000000000   24.2000007629000002
   Ir   Pd   Pt   Rh   Ru   H 
     9    10    10    10     9     1
Direct
  0.5563129084494064  0.1083173759024634  0.0399187411430894
  0.5485572597994981  0.1137350965106141  0.3097572863756008
  0.7738426859075740  0.2297369692937247  0.2176897221050365
  0.0148042681017085  0.3488726838891060  0.3972172249951231
  0.3253174909564820  0.3300837656164330  0.1270409530472344
  0.8757240335115040  0.4431848049671850  0.3068449777902481
  0.9967689801043724  0.6585797903977563  0.1260990441947007
  0.3281018997003503  0.6547391082232304  0.3929426245358265
  0.8875598643121003  0.7776731156124084  0.3071550426651298
  0.0005784828640364  0.0063416362457605  0.4000246446304216
  0.2252599965582953  0.1150968028314808  0.0325946871384095
  0.3327934933898057  0.0007116894481162  0.4024014949215044
  0.6510012353613943 -0.0071187998274864  0.4012650434211931
  0.2254215814670701  0.4445108242064546  0.3040925192904212
  0.8891255466206863  0.4424944161895336  0.0334556573934969
  0.1072510379356890  0.8854277520336563  0.2167184945463825
  0.4501688434440230  0.8895381479580003  0.2179284183014022
  0.7744394058900308  0.8895980661608439  0.2174453965105941
  0.7774374145941344  0.8801490318852537  0.4867128850747437
  0.0022058665663462  0.0049144894782865  0.1267936151396714
  0.8867725910145056  0.1111502378367789  0.3072833353164652
  0.1014908149367827  0.5478437727677705  0.2167028691662646
  0.0092144033963201  0.6657756712365785  0.3984411720690866
  0.3325240367563799  0.6672650666320795  0.1287282690866609
  0.5551690844545726  0.7817732106590519  0.0361818044871469
  0.6668088912253918  0.6642373146534860  0.1283215355602306
  0.6515769794319524  0.6565424335675126  0.3988099799409017
  0.8876505710023825  0.7732122911821635  0.0365279276136403
  0.7922440087091448  0.5548817445957445  0.4831421334560132
  0.3364815025707388  0.0039328105411569  0.1265699601863206
  0.4427604241000000  0.2312436184223985  0.2181679753267674
  0.8829814839019322  0.1180948798615886  0.0383480920832868
  0.3295962536626230  0.3346993435151818  0.3954750726269379
  0.5441794766740395  0.4360857728099725  0.0383772856211836
  0.5592599051419965  0.4460868162931938  0.3073265565057669
  0.6676651992727463  0.3294641080088877  0.1281834794898824
  0.2273264442610885  0.7753990146076278  0.0385925806325312
  0.2237235354691915  0.7890060696681290  0.3093793527695892
  0.8219640893252298  0.2576369290575165  0.4778582370180923
  0.2176349840522310  0.1000672160149028  0.3068238273638580
  0.1253825154650721  0.2328332417025784  0.2168333351416566
  0.6780187075773649  0.0221960283073216  0.1259770944178541
  0.9963080211699342  0.3231346164147416  0.1268472573509928
  0.2261539033019163  0.4462760943196428  0.0420164861264932
  0.4482209829371723  0.5449563968230386  0.2161143541833941
  0.6660931859323528  0.3321310663679178  0.3974809105364937
  0.7652368695314736  0.5448512926287887  0.2177338081615965
  0.5594910620985686  0.7750585290512837  0.3087210834370381
  0.4307077380923867  0.2285471074301409  0.4345357601036171
 
  0.00000000E+00  0.00000000E+00  0.00000000E+00
  0.00000000E+00  0.00000000E+00  0.00000000E+00
  0.00000000E+00  0.00000000E+00  0.00000000E+00
  0.00000000E+00  0.00000000E+00  0.00000000E+00
  0.00000000E+00  0.00000000E+00  0.00000000E+00
  0.00000000E+00  0.00000000E+00  0.00000000E+00
  0.00000000E+00  0.00000000E+00  0.00000000E+00
  0.00000000E+00  0.00000000E+00  0.00000000E+00
  0.00000000E+00  0.00000000E+00  0.00000000E+00
  0.00000000E+00  0.00000000E+00  0.00000000E+00
  0.00000000E+00  0.00000000E+00  0.00000000E+00
  0.00000000E+00  0.00000000E+00  0.00000000E+00
  0.00000000E+00  0.00000000E+00  0.00000000E+00
  0.00000000E+00  0.00000000E+00  0.00000000E+00
  0.00000000E+00  0.00000000E+00  0.00000000E+00
  0.00000000E+00  0.00000000E+00  0.00000000E+00
  0.00000000E+00  0.00000000E+00  0.00000000E+00
  0.00000000E+00  0.00000000E+00  0.00000000E+00
  0.00000000E+00  0.00000000E+00  0.00000000E+00
  0.00000000E+00  0.00000000E+00  0.00000000E+00
  0.00000000E+00  0.00000000E+00  0.00000000E+00
  0.00000000E+00  0.00000000E+00  0.00000000E+00
  0.00000000E+00  0.00000000E+00  0.00000000E+00
  0.00000000E+00  0.00000000E+00  0.00000000E+00
  0.00000000E+00  0.00000000E+00  0.00000000E+00
  0.00000000E+00  0.00000000E+00  0.00000000E+00
  0.00000000E+00  0.00000000E+00  0.00000000E+00
  0.00000000E+00  0.00000000E+00  0.00000000E+00
  0.00000000E+00  0.00000000E+00  0.00000000E+00
  0.00000000E+00  0.00000000E+00  0.00000000E+00
  0.00000000E+00  0.00000000E+00  0.00000000E+00
  0.00000000E+00  0.00000000E+00  0.00000000E+00
  0.00000000E+00  0.00000000E+00  0.00000000E+00
  0.00000000E+00  0.00000000E+00  0.00000000E+00
  0.00000000E+00  0.00000000E+00  0.00000000E+00
  0.00000000E+00  0.00000000E+00  0.00000000E+00
  0.00000000E+00  0.00000000E+00  0.00000000E+00
  0.00000000E+00  0.00000000E+00  0.00000000E+00
  0.00000000E+00  0.00000000E+00  0.00000000E+00
  0.00000000E+00  0.00000000E+00  0.00000000E+00
  0.00000000E+00  0.00000000E+00  0.00000000E+00
  0.00000000E+00  0.00000000E+00  0.00000000E+00
  0.00000000E+00  0.00000000E+00  0.00000000E+00
  0.00000000E+00  0.00000000E+00  0.00000000E+00
  0.00000000E+00  0.00000000E+00  0.00000000E+00
  0.00000000E+00  0.00000000E+00  0.00000000E+00
  0.00000000E+00  0.00000000E+00  0.00000000E+00
  0.00000000E+00  0.00000000E+00  0.00000000E+00
  0.00000000E+00  0.00000000E+00  0.00000000E+00
