5L_3x3_(1\1\1)                          
   1.00000000000000     
     8.4506998061999994    0.0000000000000000    0.0000000000000000
    -4.2253499030999997    7.3185207118999998    0.0000000000000000
     0.0000000000000000    0.0000000000000000   24.2000007629000002
   Ir   Pd   Pt   Rh   Ru   H 
     9     8     9     9     9     1
Direct
  0.9965191666584025  0.0051555798584502  0.1258482391639133
  0.1117342097290512  0.2097943218279645  0.2153476633983653
  0.5645149269740044  0.1194734903118025  0.0394589834263632
  0.2419238365722625  0.4516975741785302  0.0402723860557214
  0.5502166189073996  0.4399779432449489  0.0393186939113864
  0.3356695931598192  0.6701872550678714  0.1251653877380545
  0.3365272357813343  0.6859369076269801  0.3935830919569255
  0.5555152577656520  0.7752800845115443  0.0388293721386110
  0.6657913478753711  0.6675878254822772  0.1276315469889916
  0.2224058857240053  0.1148798425061553  0.0342237697431304
  0.2227416296804599  0.1096127329067503  0.3064004853184725
  0.7756158581181538  0.2209698676078369  0.2163547881329907
  0.1098173985136856  0.5550896619307233  0.2166247911400812
  0.3307629810352434  0.3332726975748547  0.4008863370791183
  0.8839961476358176  0.4394291660700770  0.0340720136631674
  0.8905595831716383  0.4393143269537476  0.3120134489973888
  0.2286449732757935  0.7783466540896145  0.0341367478907942
  0.3309710021153863  0.0014578911795411  0.4011558074487038
  0.8931003110417923  0.1110318781472419  0.3104574338507288
  0.2142967672311144  0.4417699708975046  0.3108545878034230
  0.5605732892814020  0.4406816306740354  0.3056873748977935
  0.4447515697318999  0.5491664654087917  0.2150729492903320
  0.9974253227183527  0.6622647439546718  0.1265952704336105
  0.5606741436535961  0.7805914576940089  0.3040143245377930
  0.4480079593497948  0.8959808466621076  0.2152752656354843
  0.6685491739282612  0.6685203518531115  0.4004384767072483
  0.3394805528059158  0.0070001199305906  0.1285025027962373
  0.5562948755897775  0.1121131245355393  0.3096842135716499
  0.6554922492344840  0.9886262415273677  0.3958809586073702
  0.8752499476551874  0.1019911191329500  0.0365182828501440
  0.0016645622852531  0.3261829456472951  0.1256643912548200
  0.2198456242932416  0.7772952726008064  0.3075638087391004
  0.1049767882652934  0.8905071829789795  0.2146397804024396
  0.8704177243571888  0.7764935387439431  0.0383901402071130
  0.8942892659081964  0.7756315504074830  0.3053083350916957
  0.9951046484087264  0.9695065698790140  0.3937631642097010
  0.4525933190426337  0.2309339207122277  0.2140628255333677
  0.6701517538335611  0.0002181459848108  0.1233011334006183
  0.3308904707507657  0.3240321775058631  0.1273806233304982
  0.6533203826210964  0.3272721063189764  0.1266742100923390
  0.6553326116504737  0.3276023088554843  0.3950146945746805
  0.7667035705327004  0.5538425492678599  0.2138355392612392
  0.0111807638022251  0.6855412550170129  0.3928932300997711
  0.7890721094566058  0.8855509678711052  0.2149428619925061
  0.5734431997681410  0.4598422090232921  0.4379371133025454
 
  0.00000000E+00  0.00000000E+00  0.00000000E+00
  0.00000000E+00  0.00000000E+00  0.00000000E+00
  0.00000000E+00  0.00000000E+00  0.00000000E+00
  0.00000000E+00  0.00000000E+00  0.00000000E+00
  0.00000000E+00  0.00000000E+00  0.00000000E+00
  0.00000000E+00  0.00000000E+00  0.00000000E+00
  0.00000000E+00  0.00000000E+00  0.00000000E+00
  0.00000000E+00  0.00000000E+00  0.00000000E+00
  0.00000000E+00  0.00000000E+00  0.00000000E+00
  0.00000000E+00  0.00000000E+00  0.00000000E+00
  0.00000000E+00  0.00000000E+00  0.00000000E+00
  0.00000000E+00  0.00000000E+00  0.00000000E+00
  0.00000000E+00  0.00000000E+00  0.00000000E+00
  0.00000000E+00  0.00000000E+00  0.00000000E+00
  0.00000000E+00  0.00000000E+00  0.00000000E+00
  0.00000000E+00  0.00000000E+00  0.00000000E+00
  0.00000000E+00  0.00000000E+00  0.00000000E+00
  0.00000000E+00  0.00000000E+00  0.00000000E+00
  0.00000000E+00  0.00000000E+00  0.00000000E+00
  0.00000000E+00  0.00000000E+00  0.00000000E+00
  0.00000000E+00  0.00000000E+00  0.00000000E+00
  0.00000000E+00  0.00000000E+00  0.00000000E+00
  0.00000000E+00  0.00000000E+00  0.00000000E+00
  0.00000000E+00  0.00000000E+00  0.00000000E+00
  0.00000000E+00  0.00000000E+00  0.00000000E+00
  0.00000000E+00  0.00000000E+00  0.00000000E+00
  0.00000000E+00  0.00000000E+00  0.00000000E+00
  0.00000000E+00  0.00000000E+00  0.00000000E+00
  0.00000000E+00  0.00000000E+00  0.00000000E+00
  0.00000000E+00  0.00000000E+00  0.00000000E+00
  0.00000000E+00  0.00000000E+00  0.00000000E+00
  0.00000000E+00  0.00000000E+00  0.00000000E+00
  0.00000000E+00  0.00000000E+00  0.00000000E+00
  0.00000000E+00  0.00000000E+00  0.00000000E+00
  0.00000000E+00  0.00000000E+00  0.00000000E+00
  0.00000000E+00  0.00000000E+00  0.00000000E+00
  0.00000000E+00  0.00000000E+00  0.00000000E+00
  0.00000000E+00  0.00000000E+00  0.00000000E+00
  0.00000000E+00  0.00000000E+00  0.00000000E+00
  0.00000000E+00  0.00000000E+00  0.00000000E+00
  0.00000000E+00  0.00000000E+00  0.00000000E+00
  0.00000000E+00  0.00000000E+00  0.00000000E+00
  0.00000000E+00  0.00000000E+00  0.00000000E+00
  0.00000000E+00  0.00000000E+00  0.00000000E+00
  0.00000000E+00  0.00000000E+00  0.00000000E+00
