total                                   
   1.00000000000000     
     8.4506998061999994    0.0000000000000000    0.0000000000000000
    -4.2253499030999997    7.3185207118999998    0.0000000000000000
     0.0000000000000000    0.0000000000000000   24.2000007629000002
   Ir   Pd   Pt   Rh   Ru   H 
     9     9     9     9     9     1
Direct
  0.6159973298475220  0.7188447609216040  0.1248153404479726
  0.5959915610838800  0.4761798160430954  0.3872558515447200
  0.9015097967136422  0.7130266875760722  0.4101415390798619
  0.1434618923814109  0.7561802877519601  0.0484170660602776
  0.6386016967422042  0.6942260877541405  0.2960246189803891
  0.9371444678732601  0.3799024800941840  0.2023987406096933
  0.7628607178787216  0.0878385378003064  0.1357279530125395
  0.1523571059405527  0.7404965955851315  0.3479169329392212
  0.4158442025849161  0.8724052924942413  0.1150211779441355
  0.9614661511915593  0.1379254910055769  0.3932940074985188
  0.2844795626552766  0.3692701433876010  0.4341431900117694
  0.0954064505616242  0.1870487805378521  0.1839592498751017
  0.9925618724384019  0.9278566226923781  0.1009280962898053
  0.8638230555879939  0.8370031618182950  0.2065354352498041
  0.0814457235843109  0.2662037073481116  0.0519744410476836
  0.7617853131643169  0.6018179281523037  0.0440232689020668
  0.6478407476668050  0.8183236113882804  0.3987731571861878
  0.8267083619626725  0.0798179597102697  0.2737699476876274
  0.7456587636951837  0.9280818976663695  0.0328242418516420
  0.2704181504970923  0.1036946884323770  0.0288821541500615
  0.2019997547204228  0.2517717090452644  0.2935770303570758
  0.6959746601990329  0.2256515458641171  0.3736873995969264
  0.4648891545016353  0.9542493552873872  0.0014209600520226
  0.7105197456589120  0.4789421888177023  0.1622654411809025
  0.3311385135744286  0.1071990874653138  0.3678598755822226
  0.2289616271575626  0.9578428151423513  0.2536562104011311
  0.4353053562020737  0.4777110287453312  0.2148517921098885
  0.4196464487676338  0.3834483295102730  0.0941874822113995
  0.2360374107726729  0.5271598394337663  0.1414426992024959
  0.3335987859726389  0.0975986015141103  0.1538433603263171
  0.3826311569511124  0.6313674064467771  0.0403646557216297
  0.5925099860919633  0.1635776729958494  0.2228287986522269
  0.9313848114533066  0.4465278685779537  0.0914606018537125
  0.8920497411339349  0.5961198607740943  0.2694026937041286
  0.0129420227211176  0.4770512249677781  0.4191390904029357
  0.4865877031054630  0.9134010317051336  0.3175007288245063
  0.0899930395330439  0.7240144198169028  0.1640065367666259
  0.5448630325843730  0.8455011248870491  0.2139324167864652
  0.7926136736073393  0.2437775838695845  0.0044074813254641
  0.0036997856522105  0.3990558171859962  0.3184014066383841
  0.5558092461005822  0.3478208035711698  0.2927740993542786
  0.2267800254874340  0.6336996040723059  0.2478400232601410
  0.9695597966817037  0.9031742765800175  0.3256864269358776
  0.5944231794914296  0.2192472868996212  0.0784659423924279
  0.3372649125134674  0.5692309403133149  0.3483809194239578
  0.0460536273131439  0.3080840533507134  0.4542194925677840
 
  0.00000000E+00  0.00000000E+00  0.00000000E+00
  0.00000000E+00  0.00000000E+00  0.00000000E+00
  0.00000000E+00  0.00000000E+00  0.00000000E+00
  0.00000000E+00  0.00000000E+00  0.00000000E+00
  0.00000000E+00  0.00000000E+00  0.00000000E+00
  0.00000000E+00  0.00000000E+00  0.00000000E+00
  0.00000000E+00  0.00000000E+00  0.00000000E+00
  0.00000000E+00  0.00000000E+00  0.00000000E+00
  0.00000000E+00  0.00000000E+00  0.00000000E+00
  0.00000000E+00  0.00000000E+00  0.00000000E+00
  0.00000000E+00  0.00000000E+00  0.00000000E+00
  0.00000000E+00  0.00000000E+00  0.00000000E+00
  0.00000000E+00  0.00000000E+00  0.00000000E+00
  0.00000000E+00  0.00000000E+00  0.00000000E+00
  0.00000000E+00  0.00000000E+00  0.00000000E+00
  0.00000000E+00  0.00000000E+00  0.00000000E+00
  0.00000000E+00  0.00000000E+00  0.00000000E+00
  0.00000000E+00  0.00000000E+00  0.00000000E+00
  0.00000000E+00  0.00000000E+00  0.00000000E+00
  0.00000000E+00  0.00000000E+00  0.00000000E+00
  0.00000000E+00  0.00000000E+00  0.00000000E+00
  0.00000000E+00  0.00000000E+00  0.00000000E+00
  0.00000000E+00  0.00000000E+00  0.00000000E+00
  0.00000000E+00  0.00000000E+00  0.00000000E+00
  0.00000000E+00  0.00000000E+00  0.00000000E+00
  0.00000000E+00  0.00000000E+00  0.00000000E+00
  0.00000000E+00  0.00000000E+00  0.00000000E+00
  0.00000000E+00  0.00000000E+00  0.00000000E+00
  0.00000000E+00  0.00000000E+00  0.00000000E+00
  0.00000000E+00  0.00000000E+00  0.00000000E+00
  0.00000000E+00  0.00000000E+00  0.00000000E+00
  0.00000000E+00  0.00000000E+00  0.00000000E+00
  0.00000000E+00  0.00000000E+00  0.00000000E+00
  0.00000000E+00  0.00000000E+00  0.00000000E+00
  0.00000000E+00  0.00000000E+00  0.00000000E+00
  0.00000000E+00  0.00000000E+00  0.00000000E+00
  0.00000000E+00  0.00000000E+00  0.00000000E+00
  0.00000000E+00  0.00000000E+00  0.00000000E+00
  0.00000000E+00  0.00000000E+00  0.00000000E+00
  0.00000000E+00  0.00000000E+00  0.00000000E+00
  0.00000000E+00  0.00000000E+00  0.00000000E+00
  0.00000000E+00  0.00000000E+00  0.00000000E+00
  0.00000000E+00  0.00000000E+00  0.00000000E+00
  0.00000000E+00  0.00000000E+00  0.00000000E+00
  0.00000000E+00  0.00000000E+00  0.00000000E+00
  0.00000000E+00  0.00000000E+00  0.00000000E+00
