step                                    
   1.00000000000000     
     8.4506998061999994    0.0000000000000000    0.0000000000000000
    -4.2253499030999997    7.3185207118999998    0.0000000000000000
     0.0000000000000000    0.0000000000000000   24.2000007629000002
   Ir   Pd   Pt   Rh   Ru   H 
     9    10     9     9    11     1
Direct
  0.9932610743884569  0.0060481706364698  0.1263212945701922
  0.1104167728160079  0.2129549612165913  0.2151934345673145
  0.5632552753812362  0.1224060895409039  0.0400826101653715
  0.2420322134681261  0.4568866289514558  0.0403456694775169
  0.5485639877081010  0.4418950937835988  0.0396922949215343
  0.3342039083146883  0.6732643272952568  0.1250595919645265
  0.3160106886239796  0.6771628717142740  0.3955692067653666
  0.5538643994380710  0.7805397347167889  0.0391788273224109
  0.6643265872288701  0.6705994237669896  0.1282409654028015
  0.2189573960639086  0.1183126904551470  0.0345503988022057
  0.2239384121099476  0.1121933066166011  0.3048951592340497
  0.7748084067171908  0.2254850788729932  0.2163336623583663
 -0.0039293502588223  0.3396185914355856  0.4040647198641617
  0.1084586508598948  0.5590235948374798  0.2160472091793238
  0.3142132069558685  0.3180441665439129  0.4022753468578099
  0.8819107872110576  0.4419328473679939  0.0342620554514482
  0.8865896772225473  0.4519662835384071  0.3101693860504232
  0.2259790736494582  0.7807778564847186  0.0345376555689528
  0.7640760690931154  0.1908445112085025  0.4874904934433009
  0.3272265126706805  0.0015221494954324  0.4006824687803623
  0.8876785275513553  0.1079114722274453  0.3107534608752290
  0.2140988055854551  0.4437777328952495  0.3086031345839919
  0.5569230804105408  0.4398356016851993  0.3073209923590656
  0.4410073617644573  0.5510919615139266  0.2153994548864383
  0.9939805561327824  0.6657548277561395  0.1270268777023220
  0.5520681540161659  0.7842447537985920  0.3058505820023191
  0.4488666705782230  0.8988375304219267  0.2145408972159919
  0.6184453506042563  0.6459986089452687  0.3988100501613047
  0.3359601244746441  0.0099966670857429  0.1282366259456249
  0.5584227536364678  0.1175865850571895  0.3085327640472069
  0.6349608688732606  0.9894836761201736  0.3993771548159444
  0.8713666991139255  0.1038254024140878  0.0367205347344085
  0.0003360779567709  0.3286460332854454  0.1254742820768264
  0.2183473996098680  0.7820991345554937  0.3057152126469300
  0.1038108929094552  0.8936439745270369  0.2157569222209244
  0.8681258134129285  0.7790680871330552  0.0384688954247826
  0.8902593166633936  0.7826846029701235  0.3108202684888886
  0.0173001010777726 -0.0028972997270608  0.3972896053038840
  0.4522490012347963  0.2344671354834813  0.2136192884238233
  0.6698152962762335  0.0019151874552836  0.1245885170121599
  0.3284077071603650  0.3258578148820969  0.1275302003476781
  0.6528853187011566  0.3334823981104524  0.1272487144228015
  0.6437289768725925  0.3159278219927580  0.4010339548192927
  0.7635153639719130  0.5565806292956738  0.2149810330086818
  0.0198951896935057  0.6853535487499328  0.3985314335642840
  0.7884836360711071  0.8901349541504782  0.2160596091839384
  0.8196532566184481  0.5962575504622141  0.4669482758538601
  0.8230554420930543  0.9057997789111190  0.4651101648347234
  0.6621982352727100  0.3411550613623632  0.4766986452892314
 
  0.00000000E+00  0.00000000E+00  0.00000000E+00
  0.00000000E+00  0.00000000E+00  0.00000000E+00
  0.00000000E+00  0.00000000E+00  0.00000000E+00
  0.00000000E+00  0.00000000E+00  0.00000000E+00
  0.00000000E+00  0.00000000E+00  0.00000000E+00
  0.00000000E+00  0.00000000E+00  0.00000000E+00
  0.00000000E+00  0.00000000E+00  0.00000000E+00
  0.00000000E+00  0.00000000E+00  0.00000000E+00
  0.00000000E+00  0.00000000E+00  0.00000000E+00
  0.00000000E+00  0.00000000E+00  0.00000000E+00
  0.00000000E+00  0.00000000E+00  0.00000000E+00
  0.00000000E+00  0.00000000E+00  0.00000000E+00
  0.00000000E+00  0.00000000E+00  0.00000000E+00
  0.00000000E+00  0.00000000E+00  0.00000000E+00
  0.00000000E+00  0.00000000E+00  0.00000000E+00
  0.00000000E+00  0.00000000E+00  0.00000000E+00
  0.00000000E+00  0.00000000E+00  0.00000000E+00
  0.00000000E+00  0.00000000E+00  0.00000000E+00
  0.00000000E+00  0.00000000E+00  0.00000000E+00
  0.00000000E+00  0.00000000E+00  0.00000000E+00
  0.00000000E+00  0.00000000E+00  0.00000000E+00
  0.00000000E+00  0.00000000E+00  0.00000000E+00
  0.00000000E+00  0.00000000E+00  0.00000000E+00
  0.00000000E+00  0.00000000E+00  0.00000000E+00
  0.00000000E+00  0.00000000E+00  0.00000000E+00
  0.00000000E+00  0.00000000E+00  0.00000000E+00
  0.00000000E+00  0.00000000E+00  0.00000000E+00
  0.00000000E+00  0.00000000E+00  0.00000000E+00
  0.00000000E+00  0.00000000E+00  0.00000000E+00
  0.00000000E+00  0.00000000E+00  0.00000000E+00
  0.00000000E+00  0.00000000E+00  0.00000000E+00
  0.00000000E+00  0.00000000E+00  0.00000000E+00
  0.00000000E+00  0.00000000E+00  0.00000000E+00
  0.00000000E+00  0.00000000E+00  0.00000000E+00
  0.00000000E+00  0.00000000E+00  0.00000000E+00
  0.00000000E+00  0.00000000E+00  0.00000000E+00
  0.00000000E+00  0.00000000E+00  0.00000000E+00
  0.00000000E+00  0.00000000E+00  0.00000000E+00
  0.00000000E+00  0.00000000E+00  0.00000000E+00
  0.00000000E+00  0.00000000E+00  0.00000000E+00
  0.00000000E+00  0.00000000E+00  0.00000000E+00
  0.00000000E+00  0.00000000E+00  0.00000000E+00
  0.00000000E+00  0.00000000E+00  0.00000000E+00
  0.00000000E+00  0.00000000E+00  0.00000000E+00
  0.00000000E+00  0.00000000E+00  0.00000000E+00
  0.00000000E+00  0.00000000E+00  0.00000000E+00
  0.00000000E+00  0.00000000E+00  0.00000000E+00
  0.00000000E+00  0.00000000E+00  0.00000000E+00
  0.00000000E+00  0.00000000E+00  0.00000000E+00
