step                                    
   1.00000000000000     
     8.4506998061999994    0.0000000000000000    0.0000000000000000
    -4.2253499030999997    7.3185207118999998    0.0000000000000000
     0.0000000000000000    0.0000000000000000   24.2000007629000002
   Ir   Pd   Pt   Rh   Ru   H 
     9    10     9     9    11     1
Direct
  0.9956056097293905  0.0038748609058022  0.1272468516119036
  0.1131432834612840  0.2101301074900845  0.2162929036407416
  0.5651804175581349  0.1200894826570056  0.0408840314429297
  0.2437168497852916  0.4541176790352748  0.0409797179853903
  0.5504952066184852  0.4394407324915639  0.0404096311262974
  0.3359803588780743  0.6706951903416838  0.1256925967118116
  0.3230145618605494  0.6795151952528349  0.3964915445355569
  0.5559750975281119  0.7778595913744514  0.0399537116871291
  0.6666157007279582  0.6687230453351403  0.1289631877383683
  0.2209011469122473  0.1158940205393125  0.0353323574790124
  0.2258111070881605  0.1087910918608147  0.3065314128291640
  0.7770978390950846  0.2231364895617136  0.2169088127381247
 -0.0009874981871553  0.3372531611516429  0.4062470872373810
  0.1095622087502372  0.5556836358631027  0.2169032189831956
  0.3225877984601720  0.3174996402147126  0.4050422995600635
  0.8838557445404290  0.4392432876155337  0.0351271855181257
  0.8879647030419593  0.4479590153998268  0.3119103509789305
  0.2280241335821330  0.7784501350135339  0.0352082640071564
  0.7543386567495963  0.2235780393454119  0.4874909297072492
  0.3337475069064897 -0.0012392842970546  0.4020592190428868
  0.8905714278623094  0.1060213702461880  0.3112374712358909
  0.2179784649997533  0.4420261828436242  0.3096841882398544
  0.5587883312666807  0.4369270204758935  0.3073441773889226
  0.4432299764685735  0.5493138243805719  0.2160002039793862
  0.9966226648731696  0.6636545602565260  0.1277190339160929
  0.5556351984129010  0.7825892771180978  0.3063967029613737
  0.4510560278138185  0.8965339591535147  0.2150909337180266
  0.6199731854291854  0.6427293181795375  0.3987731077039899
  0.3374076108788877  0.0075763659782578  0.1289129649642798
  0.5599018283657479  0.1124211039201305  0.3082219262737973
  0.6425573604718330  0.9918169578781729  0.4020101306308450
  0.8730344510117721  0.1011762474618054  0.0374890565794409
  0.0027764658717811  0.3260965534876514  0.1262694540527106
  0.2213299376552882  0.7783524597217876  0.3060978495536070
  0.1057707263878472  0.8904925996983196  0.2168178795190040
  0.8701483714292064  0.7766619238096121  0.0392399761118321
  0.8920902625281342  0.7792512741141341  0.3124739392542496
  0.0198267383814078  0.9930867721856147  0.3999239222989319
  0.4539104498194716  0.2319094579695563  0.2142562294528476
  0.6716347227539120 -0.0007307066214586  0.1253616204226367
  0.3302245434008801  0.3238134586882720  0.1283151389873522
  0.6549707752566809  0.3313340790776828  0.1280625149560069
  0.6428401072223767  0.3109966421846272  0.3991189228779597
  0.7658388215020616  0.5540504779940727  0.2153269597646020
  0.0270602008401719  0.6853928826457609  0.3987209162131749
  0.7911558369369315  0.8878067919436010  0.2169234923479001
  0.8152159442197560  0.5749968143625315  0.4642519922331281
  0.8199652193145128  0.8905816172955261  0.4667974003682033
  0.1064236475383002  0.2227052163979878  0.4395265824325316
 
  0.00000000E+00  0.00000000E+00  0.00000000E+00
  0.00000000E+00  0.00000000E+00  0.00000000E+00
  0.00000000E+00  0.00000000E+00  0.00000000E+00
  0.00000000E+00  0.00000000E+00  0.00000000E+00
  0.00000000E+00  0.00000000E+00  0.00000000E+00
  0.00000000E+00  0.00000000E+00  0.00000000E+00
  0.00000000E+00  0.00000000E+00  0.00000000E+00
  0.00000000E+00  0.00000000E+00  0.00000000E+00
  0.00000000E+00  0.00000000E+00  0.00000000E+00
  0.00000000E+00  0.00000000E+00  0.00000000E+00
  0.00000000E+00  0.00000000E+00  0.00000000E+00
  0.00000000E+00  0.00000000E+00  0.00000000E+00
  0.00000000E+00  0.00000000E+00  0.00000000E+00
  0.00000000E+00  0.00000000E+00  0.00000000E+00
  0.00000000E+00  0.00000000E+00  0.00000000E+00
  0.00000000E+00  0.00000000E+00  0.00000000E+00
  0.00000000E+00  0.00000000E+00  0.00000000E+00
  0.00000000E+00  0.00000000E+00  0.00000000E+00
  0.00000000E+00  0.00000000E+00  0.00000000E+00
  0.00000000E+00  0.00000000E+00  0.00000000E+00
  0.00000000E+00  0.00000000E+00  0.00000000E+00
  0.00000000E+00  0.00000000E+00  0.00000000E+00
  0.00000000E+00  0.00000000E+00  0.00000000E+00
  0.00000000E+00  0.00000000E+00  0.00000000E+00
  0.00000000E+00  0.00000000E+00  0.00000000E+00
  0.00000000E+00  0.00000000E+00  0.00000000E+00
  0.00000000E+00  0.00000000E+00  0.00000000E+00
  0.00000000E+00  0.00000000E+00  0.00000000E+00
  0.00000000E+00  0.00000000E+00  0.00000000E+00
  0.00000000E+00  0.00000000E+00  0.00000000E+00
  0.00000000E+00  0.00000000E+00  0.00000000E+00
  0.00000000E+00  0.00000000E+00  0.00000000E+00
  0.00000000E+00  0.00000000E+00  0.00000000E+00
  0.00000000E+00  0.00000000E+00  0.00000000E+00
  0.00000000E+00  0.00000000E+00  0.00000000E+00
  0.00000000E+00  0.00000000E+00  0.00000000E+00
  0.00000000E+00  0.00000000E+00  0.00000000E+00
  0.00000000E+00  0.00000000E+00  0.00000000E+00
  0.00000000E+00  0.00000000E+00  0.00000000E+00
  0.00000000E+00  0.00000000E+00  0.00000000E+00
  0.00000000E+00  0.00000000E+00  0.00000000E+00
  0.00000000E+00  0.00000000E+00  0.00000000E+00
  0.00000000E+00  0.00000000E+00  0.00000000E+00
  0.00000000E+00  0.00000000E+00  0.00000000E+00
  0.00000000E+00  0.00000000E+00  0.00000000E+00
  0.00000000E+00  0.00000000E+00  0.00000000E+00
  0.00000000E+00  0.00000000E+00  0.00000000E+00
  0.00000000E+00  0.00000000E+00  0.00000000E+00
  0.00000000E+00  0.00000000E+00  0.00000000E+00
