step                                    
   1.00000000000000     
     8.4506998061999994    0.0000000000000000    0.0000000000000000
    -4.2253499030999997    7.3185207118999998    0.0000000000000000
     0.0000000000000000    0.0000000000000000   24.2000007629000002
   Ir   Pd   Pt   Rh   Ru   H 
    10     9    10    10     9     1
Direct
  0.9958926760219547  0.0033559540873068  0.1254287774422584
  0.1141446772110644  0.2103221027124896  0.2145286567131776
  0.5659091983538340  0.1205388660320855  0.0387911524591793
  0.2444925843945759  0.4530012012978508  0.0394691637814326
  0.5511614598151673  0.4388483240827366  0.0386914271270145
  0.3375447139192401  0.6711508256769911  0.1239379568959304
  0.3230895790879015  0.6743206522715345  0.3940134321526473
  0.5572701896439223  0.7760282496042221  0.0378946723427242
  0.6689547987595451  0.6693621303411231  0.1265415351361983
  0.8228216605064652  0.9352180411010751  0.4728457640565633
  0.2225212082183483  0.1150270604672443  0.0337310924932695
  0.2244566738458957  0.1096491781439167  0.3050469817775999
  0.7769356347295518  0.2203941006769254  0.2153078887281144
  0.0139877984374181  0.3426892399042586  0.4012456071403598
  0.1116434264493067  0.5567434051738811  0.2150463765998711
  0.3321622019638126  0.3211824623104459  0.4007485136203843
  0.8850135307273798  0.4396906294370468  0.0334003482949552
  0.8884678137825167  0.4442902067379417  0.3068585883130066
  0.2299734286195489  0.7784590140462370  0.0335306778980893
  0.3199380236884224 -0.0069288155406164  0.3993582617648060
  0.8895579364088295  0.1031107206032968  0.3100011519517107
  0.2199073186122515  0.4420345110664427  0.3067158911933631
  0.5619241746761344  0.4414620972297963  0.3061612695919100
  0.4455323927788163  0.5493736253290554  0.2135779665933366
  0.9980628836291568  0.6636157053336060  0.1259585469653439
  0.5572963918264909  0.7825351673292769  0.3057113840834928
  0.4525325371190760  0.8944652398593409  0.2144043541913705
  0.6446347974934665  0.6581343194034945  0.3983403446103226
  0.8028507421357711  0.5725988416941212  0.4804744233370347
  0.3407679345876575  0.0069424846709892  0.1278127192423112
  0.5561053136701166  0.1136750073709832  0.3079824357519917
  0.6328272349650716  0.9913700341739068  0.3997462883227957
  0.8744756334066706  0.1017732871331187  0.0357092914911070
  0.0034580738161592  0.3260339436424519  0.1246588498760928
  0.2174359264993161  0.7775224166122041  0.3061451632395412
  0.1078170328009739  0.8912192570474478  0.2146819390166209
  0.8719015177510719  0.7759726853123857  0.0371907023873854
  0.8968802068023131  0.7797891104697185  0.3070650957362934
  0.7805819125077103  0.2204187116706655  0.4787322835549774
  0.0085402950373273  0.9807755330858972  0.3971134757394112
  0.4552188971980857  0.2332293889058548  0.2132316018355286
  0.6716041170052577 -0.0006509673028193  0.1229189743738025
  0.3299201080051885  0.3209588225882682  0.1265099257632823
  0.6549287845486130  0.3285891531236434  0.1264095250846833
  0.6709948346952201  0.3332301946916044  0.3978570903238290
  0.7657588164640328  0.5533909778594494  0.2133857347251797
  0.0079662637147452  0.6649295169731029  0.3953655943987921
  0.7904029829277585  0.8849266606616424  0.2151086938843292
  0.8430034447408309  0.7803603618963495  0.5166524109965756
 
  0.00000000E+00  0.00000000E+00  0.00000000E+00
  0.00000000E+00  0.00000000E+00  0.00000000E+00
  0.00000000E+00  0.00000000E+00  0.00000000E+00
  0.00000000E+00  0.00000000E+00  0.00000000E+00
  0.00000000E+00  0.00000000E+00  0.00000000E+00
  0.00000000E+00  0.00000000E+00  0.00000000E+00
  0.00000000E+00  0.00000000E+00  0.00000000E+00
  0.00000000E+00  0.00000000E+00  0.00000000E+00
  0.00000000E+00  0.00000000E+00  0.00000000E+00
  0.00000000E+00  0.00000000E+00  0.00000000E+00
  0.00000000E+00  0.00000000E+00  0.00000000E+00
  0.00000000E+00  0.00000000E+00  0.00000000E+00
  0.00000000E+00  0.00000000E+00  0.00000000E+00
  0.00000000E+00  0.00000000E+00  0.00000000E+00
  0.00000000E+00  0.00000000E+00  0.00000000E+00
  0.00000000E+00  0.00000000E+00  0.00000000E+00
  0.00000000E+00  0.00000000E+00  0.00000000E+00
  0.00000000E+00  0.00000000E+00  0.00000000E+00
  0.00000000E+00  0.00000000E+00  0.00000000E+00
  0.00000000E+00  0.00000000E+00  0.00000000E+00
  0.00000000E+00  0.00000000E+00  0.00000000E+00
  0.00000000E+00  0.00000000E+00  0.00000000E+00
  0.00000000E+00  0.00000000E+00  0.00000000E+00
  0.00000000E+00  0.00000000E+00  0.00000000E+00
  0.00000000E+00  0.00000000E+00  0.00000000E+00
  0.00000000E+00  0.00000000E+00  0.00000000E+00
  0.00000000E+00  0.00000000E+00  0.00000000E+00
  0.00000000E+00  0.00000000E+00  0.00000000E+00
  0.00000000E+00  0.00000000E+00  0.00000000E+00
  0.00000000E+00  0.00000000E+00  0.00000000E+00
  0.00000000E+00  0.00000000E+00  0.00000000E+00
  0.00000000E+00  0.00000000E+00  0.00000000E+00
  0.00000000E+00  0.00000000E+00  0.00000000E+00
  0.00000000E+00  0.00000000E+00  0.00000000E+00
  0.00000000E+00  0.00000000E+00  0.00000000E+00
  0.00000000E+00  0.00000000E+00  0.00000000E+00
  0.00000000E+00  0.00000000E+00  0.00000000E+00
  0.00000000E+00  0.00000000E+00  0.00000000E+00
  0.00000000E+00  0.00000000E+00  0.00000000E+00
  0.00000000E+00  0.00000000E+00  0.00000000E+00
  0.00000000E+00  0.00000000E+00  0.00000000E+00
  0.00000000E+00  0.00000000E+00  0.00000000E+00
  0.00000000E+00  0.00000000E+00  0.00000000E+00
  0.00000000E+00  0.00000000E+00  0.00000000E+00
  0.00000000E+00  0.00000000E+00  0.00000000E+00
  0.00000000E+00  0.00000000E+00  0.00000000E+00
  0.00000000E+00  0.00000000E+00  0.00000000E+00
  0.00000000E+00  0.00000000E+00  0.00000000E+00
  0.00000000E+00  0.00000000E+00  0.00000000E+00
