hRu2Pt1Ir1                              
   1.00000000000000     
     8.4506998061999994    0.0000000000000000    0.0000000000000000
    -4.2253499030999997    7.3185207118999998    0.0000000000000000
     0.0000000000000000    0.0000000000000000   24.2000007629000002
   Ir   Pd   Pt   Rh   Ru   H 
     9     9     9     9     9     1
Direct
  0.9991190421614425  0.0094243740942596  0.1260638205201571
  0.1132497297147961  0.2146661724599774  0.2154652000010800
  0.5668773214816204  0.1250567889736608  0.0396265526884100
  0.2442657975476662  0.4570800480552938  0.0402863489777008
  0.5520001603607365  0.4442374868844756  0.0391427532480161
  0.3388610079497710  0.6757923903273259  0.1250030699610999
  0.3357457305478812  0.6833258527518926  0.3963160465038174
  0.5573270111914216  0.7818070539072803  0.0384669083647507
  0.6671662414786228  0.6729008794160141  0.1273612783936159
  0.2234355359069515  0.1198507604342779  0.0344191178578919
  0.2246296193360995  0.1132743058211585  0.3067850854618646
  0.7768164699114731  0.2260681178255719  0.2156783453185876
  0.9920659483269513  0.3332282776217732  0.4036642256784554
  0.1132363492478970  0.5625521490419011  0.2160757308088601
  0.3386712358240081  0.3378441942992280  0.4011983904465904
  0.8858614844847695  0.4444599053343572  0.0340641781700355
  0.8916216628997371  0.4512264698369434  0.3079316935995411
  0.2302842383087661  0.7831365081804490  0.0341700149471081
  0.3335908040915718  0.0065988978947394  0.4006257756146092
  0.8924215817438528  0.1136651523213741  0.3085149372720155
  0.2215391710008943  0.4475724736239600  0.3080213651485895
  0.5611152029464406  0.4453257431895629  0.3057773210114340
  0.4482041289589858  0.5556313930379351  0.2151414727712766
  0.9988322175728989  0.6676630565481290  0.1264113002422887
  0.5587239921277273  0.7851750523100319  0.3049565342884660
  0.4495200226899969  0.9016642261760197  0.2159664822428593
  0.6717161023069005  0.6677676691338968  0.3984604347288466
  0.3414459769957440  0.0117579560371043  0.1286743909679346
  0.5580714601296376  0.1170559966802962  0.3105893042009054
  0.6645053412856730  0.9965950638739485  0.3972395177933430
  0.8766751474647143  0.1063913409822391  0.0367962372111236
  0.0048576495889306  0.3319166922234301  0.1254592759486647
  0.2226070590809542  0.7835364487861382  0.3090733890320011
  0.1060458846901642  0.8944145756083702  0.2150707820856342
  0.8720009081491382  0.7813283410381069  0.0380676108931298
  0.8958786958691204  0.7826520619489002  0.3059421343213055
  0.9918427688767458  0.9786332346120306  0.3948101574329739
  0.4546884132754117  0.2367287793053123  0.2142743452943414
  0.6705025910023792  0.0032852058134500  0.1237453447386876
  0.3338846692169001  0.3296351990339487  0.1275318271395487
  0.6543992870241478  0.3331072322436494  0.1267093113320246
  0.6631053058784697  0.3355801096118396  0.3943378156351086
  0.7686845963473543  0.5598045615311510  0.2138249975809527
  0.0065202628809206  0.6861539638077996  0.3942198912403118
  0.7940370635414946  0.8940985942052664  0.2147466829766702
  0.1409488255822059  0.5739588571555233  0.4371126089073685
 
  0.00000000E+00  0.00000000E+00  0.00000000E+00
  0.00000000E+00  0.00000000E+00  0.00000000E+00
  0.00000000E+00  0.00000000E+00  0.00000000E+00
  0.00000000E+00  0.00000000E+00  0.00000000E+00
  0.00000000E+00  0.00000000E+00  0.00000000E+00
  0.00000000E+00  0.00000000E+00  0.00000000E+00
  0.00000000E+00  0.00000000E+00  0.00000000E+00
  0.00000000E+00  0.00000000E+00  0.00000000E+00
  0.00000000E+00  0.00000000E+00  0.00000000E+00
  0.00000000E+00  0.00000000E+00  0.00000000E+00
  0.00000000E+00  0.00000000E+00  0.00000000E+00
  0.00000000E+00  0.00000000E+00  0.00000000E+00
  0.00000000E+00  0.00000000E+00  0.00000000E+00
  0.00000000E+00  0.00000000E+00  0.00000000E+00
  0.00000000E+00  0.00000000E+00  0.00000000E+00
  0.00000000E+00  0.00000000E+00  0.00000000E+00
  0.00000000E+00  0.00000000E+00  0.00000000E+00
  0.00000000E+00  0.00000000E+00  0.00000000E+00
  0.00000000E+00  0.00000000E+00  0.00000000E+00
  0.00000000E+00  0.00000000E+00  0.00000000E+00
  0.00000000E+00  0.00000000E+00  0.00000000E+00
  0.00000000E+00  0.00000000E+00  0.00000000E+00
  0.00000000E+00  0.00000000E+00  0.00000000E+00
  0.00000000E+00  0.00000000E+00  0.00000000E+00
  0.00000000E+00  0.00000000E+00  0.00000000E+00
  0.00000000E+00  0.00000000E+00  0.00000000E+00
  0.00000000E+00  0.00000000E+00  0.00000000E+00
  0.00000000E+00  0.00000000E+00  0.00000000E+00
  0.00000000E+00  0.00000000E+00  0.00000000E+00
  0.00000000E+00  0.00000000E+00  0.00000000E+00
  0.00000000E+00  0.00000000E+00  0.00000000E+00
  0.00000000E+00  0.00000000E+00  0.00000000E+00
  0.00000000E+00  0.00000000E+00  0.00000000E+00
  0.00000000E+00  0.00000000E+00  0.00000000E+00
  0.00000000E+00  0.00000000E+00  0.00000000E+00
  0.00000000E+00  0.00000000E+00  0.00000000E+00
  0.00000000E+00  0.00000000E+00  0.00000000E+00
  0.00000000E+00  0.00000000E+00  0.00000000E+00
  0.00000000E+00  0.00000000E+00  0.00000000E+00
  0.00000000E+00  0.00000000E+00  0.00000000E+00
  0.00000000E+00  0.00000000E+00  0.00000000E+00
  0.00000000E+00  0.00000000E+00  0.00000000E+00
  0.00000000E+00  0.00000000E+00  0.00000000E+00
  0.00000000E+00  0.00000000E+00  0.00000000E+00
  0.00000000E+00  0.00000000E+00  0.00000000E+00
  0.00000000E+00  0.00000000E+00  0.00000000E+00
