5L_3x3_(1\1\1)                          
   1.00000000000000     
     8.4506998061999994    0.0000000000000000    0.0000000000000000
    -4.2253499030999997    7.3185207118999998    0.0000000000000000
     0.0000000000000000    0.0000000000000000   24.2000007629000002
   Ir   Pd   Pt   Rh   Ru   H 
     9     9     9     9     8     1
Direct
  0.9974858100414641  0.0049152294463756  0.1259919780827227
  0.1131451140321507  0.2113595728883699  0.2152547858274551
  0.5659945596997968  0.1203243979328421  0.0402644063199187
  0.2450649358829184  0.4544983729085091  0.0405048234545397
  0.5519401412848061  0.4396876119934361  0.0394505647556518
  0.3360526403549755  0.6712379714455374  0.1251739263558208
  0.3470066333381958  0.6792724546221712  0.3932772407462198
  0.5566620868615635  0.7799064974721857  0.0394248005264785
  0.6675463582288879  0.6683298064099275  0.1277678333873285
  0.2226404477182314  0.1165033553107988  0.0344598911922448
  0.2240368903671919  0.1105346532457227  0.3065215279628404
  0.7766122056733886  0.2237786723029999  0.2158626156487319
  0.0064129526904635  0.3346690756688110  0.4020524017663807
  0.1090909420509224  0.5582033770018446  0.2166899993783882
  0.3375181964452684  0.3364714756108590  0.4012689684039472
  0.8843292712555214  0.4393522923005698  0.0344285567145007
  0.8905654472285733  0.4540082923451874  0.3115138162634215
  0.2292057197146193  0.7793371013238101  0.0344182062450244
  0.3220280792968195 -0.0078852189666797  0.3985080577725436
  0.8913842256726303  0.1125326538470156  0.3074937770626900
  0.2202208301322233  0.4465054066635062  0.3074270712229687
  0.5626433254446526  0.4455972593870936  0.3061500003707476
  0.4448064102420127  0.5503558306984466  0.2145041720255798
  0.9975365567067228  0.6633589665955016  0.1266541436161799
  0.5617173690828460  0.7862764973532915  0.3036246213287514
  0.4462755461396602  0.8974670052257461  0.2162151501541804
  0.6655402847911270  0.6722918307618277  0.3968274564354322
  0.3394866345398023  0.0077783911872136  0.1287845484573756
  0.5566354713496053  0.1150412782053073  0.3086471427350376
  0.6601231391370946 -0.0011388042327307  0.3985288761877531
  0.8741439623076066  0.1012870255415344  0.0375263445611549
  0.0047268764955072  0.3278964336003334  0.1255393290162426
  0.2151386822111225  0.7742216328167929  0.3105573593921205
  0.1046421237868065  0.8904863995412746  0.2154240656857865
  0.8705981731081173  0.7768922118634697  0.0381849165005020
  0.9010190178490106  0.7809659662834657  0.3088229651853436
  0.9895229583131950  0.9831020326828249  0.3938252848488951
  0.4546823358783109  0.2329196812391504  0.2143642437369663
  0.6694468545323157  0.9974883572553049  0.1258283017325027
  0.3317999506942222  0.3243688464989724  0.1274917942661259
  0.6537034686319596  0.3298388136008842  0.1271473706499867
  0.6411348523055618  0.3095470794630165  0.3945608528207574
  0.7679663883586704  0.5553198133705441  0.2144675027315449
  0.7928002016201570  0.8877814464034309  0.2157199192480197
  0.7732320129356275  0.2201200013044821  0.4338628666600752
 
  0.00000000E+00  0.00000000E+00  0.00000000E+00
  0.00000000E+00  0.00000000E+00  0.00000000E+00
  0.00000000E+00  0.00000000E+00  0.00000000E+00
  0.00000000E+00  0.00000000E+00  0.00000000E+00
  0.00000000E+00  0.00000000E+00  0.00000000E+00
  0.00000000E+00  0.00000000E+00  0.00000000E+00
  0.00000000E+00  0.00000000E+00  0.00000000E+00
  0.00000000E+00  0.00000000E+00  0.00000000E+00
  0.00000000E+00  0.00000000E+00  0.00000000E+00
  0.00000000E+00  0.00000000E+00  0.00000000E+00
  0.00000000E+00  0.00000000E+00  0.00000000E+00
  0.00000000E+00  0.00000000E+00  0.00000000E+00
  0.00000000E+00  0.00000000E+00  0.00000000E+00
  0.00000000E+00  0.00000000E+00  0.00000000E+00
  0.00000000E+00  0.00000000E+00  0.00000000E+00
  0.00000000E+00  0.00000000E+00  0.00000000E+00
  0.00000000E+00  0.00000000E+00  0.00000000E+00
  0.00000000E+00  0.00000000E+00  0.00000000E+00
  0.00000000E+00  0.00000000E+00  0.00000000E+00
  0.00000000E+00  0.00000000E+00  0.00000000E+00
  0.00000000E+00  0.00000000E+00  0.00000000E+00
  0.00000000E+00  0.00000000E+00  0.00000000E+00
  0.00000000E+00  0.00000000E+00  0.00000000E+00
  0.00000000E+00  0.00000000E+00  0.00000000E+00
  0.00000000E+00  0.00000000E+00  0.00000000E+00
  0.00000000E+00  0.00000000E+00  0.00000000E+00
  0.00000000E+00  0.00000000E+00  0.00000000E+00
  0.00000000E+00  0.00000000E+00  0.00000000E+00
  0.00000000E+00  0.00000000E+00  0.00000000E+00
  0.00000000E+00  0.00000000E+00  0.00000000E+00
  0.00000000E+00  0.00000000E+00  0.00000000E+00
  0.00000000E+00  0.00000000E+00  0.00000000E+00
  0.00000000E+00  0.00000000E+00  0.00000000E+00
  0.00000000E+00  0.00000000E+00  0.00000000E+00
  0.00000000E+00  0.00000000E+00  0.00000000E+00
  0.00000000E+00  0.00000000E+00  0.00000000E+00
  0.00000000E+00  0.00000000E+00  0.00000000E+00
  0.00000000E+00  0.00000000E+00  0.00000000E+00
  0.00000000E+00  0.00000000E+00  0.00000000E+00
  0.00000000E+00  0.00000000E+00  0.00000000E+00
  0.00000000E+00  0.00000000E+00  0.00000000E+00
  0.00000000E+00  0.00000000E+00  0.00000000E+00
  0.00000000E+00  0.00000000E+00  0.00000000E+00
  0.00000000E+00  0.00000000E+00  0.00000000E+00
  0.00000000E+00  0.00000000E+00  0.00000000E+00
