fRu1Pt2Pd2                              
   1.00000000000000     
     8.4506998061999994    0.0000000000000000    0.0000000000000000
    -4.2253499030999997    7.3185207118999998    0.0000000000000000
     0.0000000000000000    0.0000000000000000   24.2000007629000002
   Ir   Pd   Pt   Rh   Ru   H 
     9     9     9     9     9     1
Direct
  0.9971245224273522  0.0046174119717428  0.1259707596837465
  0.1115228770126615  0.2099727340233390  0.2154500774546490
  0.5651003937372994  0.1202242739738442  0.0396394977551728
  0.2430346520824847  0.4527980606258982  0.0405091275843035
  0.5503617996863558  0.4397539344171392  0.0391454228684915
  0.3380660042736610  0.6721949099296666  0.1251166394192625
  0.3274043678442896  0.6753303374565746  0.3951475339444555
  0.5555597841593370  0.7775949619684454  0.0385218367714473
  0.6654948109497633  0.6683619541702763  0.1273590112281907
  0.2225726940170712  0.1155962966539242  0.0343877045592730
  0.2238837262792636  0.1095453514399049  0.3072167399130906
  0.7752454840207376  0.2222450738455075  0.2157165253197122
  0.9940825648113232  0.3358948125914261  0.4021686379113169
  0.1131114457399498  0.5586941210788372  0.2154920179204897
  0.3344678247739306  0.3403459443271989  0.4020210859063418
  0.8840396952723759  0.4399636974919070  0.0342178883546718
  0.8918216083307373  0.4491324124389517  0.3067327278886072
  0.2286373829169628  0.7788195763757985  0.0343216041343725
  0.3297132939258807 -0.0031195465616766  0.4024838892633692
  0.8911829793711474  0.1096923860774371  0.3081403254582437
  0.2197453201269220  0.4429955745824735  0.3077377838608966
  0.5605228936597115  0.4412270270749785  0.3061689575927327
  0.4462765914148562  0.5503018044187792  0.2152854170506271
  0.9968484034456819  0.6637091430460517  0.1264388212315109
  0.5576879694330090  0.7808413300835974  0.3052868461576997
  0.4488482657587510  0.8979196398655221  0.2161553093646876
  0.6726019367358647  0.6645797660090321  0.3988732126987740
  0.3399802038912528  0.0072251829626740  0.1288711132612915
  0.5575210408000176  0.1134837750193871  0.3113687899169381
  0.6658714088254803  0.9904814670110860  0.3973287840905999
  0.8756065869624299  0.1025000758234366  0.0368194137242744
  0.0030551432288506  0.3269038964750970  0.1254093731963938
  0.2224762757095955  0.7815685907564621  0.3085036887300125
  0.1037561108709020  0.8895517490132016  0.2151271471082480
  0.8700870353319433  0.7764700008081292  0.0380458269212045
  0.8954892016943751  0.7795017381498195  0.3059372117348479
  0.9864272369291203  0.9734850068686670  0.3944919566498489
  0.4526262367607129  0.2319757200636090  0.2145093752934265
  0.6695817351239213  0.9995590152200424  0.1237384803726655
  0.3322722455724880  0.3243660962465167  0.1275427159518910
  0.6525392505199121  0.3285908242561817  0.1267504595204299
  0.6686591838932959  0.3364289305791484  0.3948548507878958
  0.7665673615185941  0.5548426334070066  0.2137955083006651
  0.0058020248781229  0.6808266445232596  0.3933965287984049
  0.7906016639190152  0.8890971984069506  0.2150829911739420
  0.4522004663625760  0.2161080570327435  0.4365403921708833
 
  0.00000000E+00  0.00000000E+00  0.00000000E+00
  0.00000000E+00  0.00000000E+00  0.00000000E+00
  0.00000000E+00  0.00000000E+00  0.00000000E+00
  0.00000000E+00  0.00000000E+00  0.00000000E+00
  0.00000000E+00  0.00000000E+00  0.00000000E+00
  0.00000000E+00  0.00000000E+00  0.00000000E+00
  0.00000000E+00  0.00000000E+00  0.00000000E+00
  0.00000000E+00  0.00000000E+00  0.00000000E+00
  0.00000000E+00  0.00000000E+00  0.00000000E+00
  0.00000000E+00  0.00000000E+00  0.00000000E+00
  0.00000000E+00  0.00000000E+00  0.00000000E+00
  0.00000000E+00  0.00000000E+00  0.00000000E+00
  0.00000000E+00  0.00000000E+00  0.00000000E+00
  0.00000000E+00  0.00000000E+00  0.00000000E+00
  0.00000000E+00  0.00000000E+00  0.00000000E+00
  0.00000000E+00  0.00000000E+00  0.00000000E+00
  0.00000000E+00  0.00000000E+00  0.00000000E+00
  0.00000000E+00  0.00000000E+00  0.00000000E+00
  0.00000000E+00  0.00000000E+00  0.00000000E+00
  0.00000000E+00  0.00000000E+00  0.00000000E+00
  0.00000000E+00  0.00000000E+00  0.00000000E+00
  0.00000000E+00  0.00000000E+00  0.00000000E+00
  0.00000000E+00  0.00000000E+00  0.00000000E+00
  0.00000000E+00  0.00000000E+00  0.00000000E+00
  0.00000000E+00  0.00000000E+00  0.00000000E+00
  0.00000000E+00  0.00000000E+00  0.00000000E+00
  0.00000000E+00  0.00000000E+00  0.00000000E+00
  0.00000000E+00  0.00000000E+00  0.00000000E+00
  0.00000000E+00  0.00000000E+00  0.00000000E+00
  0.00000000E+00  0.00000000E+00  0.00000000E+00
  0.00000000E+00  0.00000000E+00  0.00000000E+00
  0.00000000E+00  0.00000000E+00  0.00000000E+00
  0.00000000E+00  0.00000000E+00  0.00000000E+00
  0.00000000E+00  0.00000000E+00  0.00000000E+00
  0.00000000E+00  0.00000000E+00  0.00000000E+00
  0.00000000E+00  0.00000000E+00  0.00000000E+00
  0.00000000E+00  0.00000000E+00  0.00000000E+00
  0.00000000E+00  0.00000000E+00  0.00000000E+00
  0.00000000E+00  0.00000000E+00  0.00000000E+00
  0.00000000E+00  0.00000000E+00  0.00000000E+00
  0.00000000E+00  0.00000000E+00  0.00000000E+00
  0.00000000E+00  0.00000000E+00  0.00000000E+00
  0.00000000E+00  0.00000000E+00  0.00000000E+00
  0.00000000E+00  0.00000000E+00  0.00000000E+00
  0.00000000E+00  0.00000000E+00  0.00000000E+00
  0.00000000E+00  0.00000000E+00  0.00000000E+00
