hRu1Ru2Pd1                              
   1.00000000000000     
     8.4506998061999994    0.0000000000000000    0.0000000000000000
    -4.2253499030999997    7.3185207118999998    0.0000000000000000
     0.0000000000000000    0.0000000000000000   24.2000007629000002
   Ir   Pd   Pt   Rh   Ru   H 
     9     9     9     9     9     1
Direct
  0.9968013066485110  0.0044334393389648  0.1260298103971425
  0.1115308998413771  0.2100508311533680  0.2154681295044689
  0.5648715827665177  0.1203205081983379  0.0398322764370994
  0.2427009676076686  0.4527900097938335  0.0405182609123638
  0.5504754087344416  0.4396878326744353  0.0392998685191710
  0.3373877088045046  0.6714017633946208  0.1252663215193259
  0.3324198202215439  0.6780958994452763  0.3950193555671523
  0.5556063233819558  0.7774103112859931  0.0387068192966210
  0.6657852811797221  0.6685402209154693  0.1275755978373958
  0.2223613449290275  0.1156714540025287  0.0344448264077467
  0.2240455493869214  0.1094954213534651  0.3067872336906476
  0.7751374442549100  0.2220428842642202  0.2158765354131318
 -0.0015958008855530  0.3343065382411107  0.4037443188307424
  0.1114716401985500  0.5580692090499065  0.2161781004016982
  0.3355523357476046  0.3352633136835344  0.4012728058955725
  0.8842970853887752  0.4397378400696016  0.0343098394594129
  0.8892562913235811  0.4471565572886248  0.3080035013551708
  0.2284391826936518  0.7785855196148043  0.0344806816973467
  0.3348416112475171  0.0021202073268275  0.4008307509490429
  0.8917078235500067  0.1097582157932332  0.3085723502824849
  0.2193027874293667  0.4428067123853961  0.3080373159580465
  0.5601647066198040  0.4416529331814739  0.3060630880305390
  0.4458393271465286  0.5502049528990450  0.2152891452908590
  0.9967755579381360  0.6633519180242791  0.1266047263869118
  0.5580414731501303  0.7808642357198795  0.3049555684185558
  0.4482332647723236  0.8972081757196541  0.2160076557930624
  0.6696596916342957  0.6658173769988408  0.3989239601941542
  0.3396645603434849  0.0072911671458462  0.1288765395028261
  0.5575191138109015  0.1125255151761969  0.3103979397859757
  0.6626316731662029  0.9919020261431852  0.3971160611421214
  0.8751430522324886  0.1021650433240504  0.0370032058229357
  0.0030845861821019  0.3271381959840889  0.1256104415987268
  0.2209069273686015  0.7793377328230029  0.3086571453773501
  0.1038991013918190  0.8897416709555113  0.2151899951051331
  0.8701996722765422  0.7766353906048125  0.0382058712706354
  0.8950347629104860  0.7788855806058194  0.3063899525986231
  0.9907125907420843  0.9748578049812151  0.3948207333372754
  0.4527322291748528  0.2322580307296379  0.2144680812425822
  0.6693041453655543 -0.0007609646619159  0.1239063781346094
  0.3321209934087845  0.3248534486518055  0.1275840889387042
  0.6527845908462846  0.3288883141794890  0.1268456960757661
  0.6553377539381050  0.3279506998231032  0.3958059827067080
  0.7668445585120464  0.5551461659259759  0.2141889190685473
  0.0104372172634080  0.6866045296911811  0.3950093870097734
  0.7909646833697869  0.8889197482793632  0.2153581669384918
  0.8792268619846272  0.4564751978208987  0.4302865788973478
 
  0.00000000E+00  0.00000000E+00  0.00000000E+00
  0.00000000E+00  0.00000000E+00  0.00000000E+00
  0.00000000E+00  0.00000000E+00  0.00000000E+00
  0.00000000E+00  0.00000000E+00  0.00000000E+00
  0.00000000E+00  0.00000000E+00  0.00000000E+00
  0.00000000E+00  0.00000000E+00  0.00000000E+00
  0.00000000E+00  0.00000000E+00  0.00000000E+00
  0.00000000E+00  0.00000000E+00  0.00000000E+00
  0.00000000E+00  0.00000000E+00  0.00000000E+00
  0.00000000E+00  0.00000000E+00  0.00000000E+00
  0.00000000E+00  0.00000000E+00  0.00000000E+00
  0.00000000E+00  0.00000000E+00  0.00000000E+00
  0.00000000E+00  0.00000000E+00  0.00000000E+00
  0.00000000E+00  0.00000000E+00  0.00000000E+00
  0.00000000E+00  0.00000000E+00  0.00000000E+00
  0.00000000E+00  0.00000000E+00  0.00000000E+00
  0.00000000E+00  0.00000000E+00  0.00000000E+00
  0.00000000E+00  0.00000000E+00  0.00000000E+00
  0.00000000E+00  0.00000000E+00  0.00000000E+00
  0.00000000E+00  0.00000000E+00  0.00000000E+00
  0.00000000E+00  0.00000000E+00  0.00000000E+00
  0.00000000E+00  0.00000000E+00  0.00000000E+00
  0.00000000E+00  0.00000000E+00  0.00000000E+00
  0.00000000E+00  0.00000000E+00  0.00000000E+00
  0.00000000E+00  0.00000000E+00  0.00000000E+00
  0.00000000E+00  0.00000000E+00  0.00000000E+00
  0.00000000E+00  0.00000000E+00  0.00000000E+00
  0.00000000E+00  0.00000000E+00  0.00000000E+00
  0.00000000E+00  0.00000000E+00  0.00000000E+00
  0.00000000E+00  0.00000000E+00  0.00000000E+00
  0.00000000E+00  0.00000000E+00  0.00000000E+00
  0.00000000E+00  0.00000000E+00  0.00000000E+00
  0.00000000E+00  0.00000000E+00  0.00000000E+00
  0.00000000E+00  0.00000000E+00  0.00000000E+00
  0.00000000E+00  0.00000000E+00  0.00000000E+00
  0.00000000E+00  0.00000000E+00  0.00000000E+00
  0.00000000E+00  0.00000000E+00  0.00000000E+00
  0.00000000E+00  0.00000000E+00  0.00000000E+00
  0.00000000E+00  0.00000000E+00  0.00000000E+00
  0.00000000E+00  0.00000000E+00  0.00000000E+00
  0.00000000E+00  0.00000000E+00  0.00000000E+00
  0.00000000E+00  0.00000000E+00  0.00000000E+00
  0.00000000E+00  0.00000000E+00  0.00000000E+00
  0.00000000E+00  0.00000000E+00  0.00000000E+00
  0.00000000E+00  0.00000000E+00  0.00000000E+00
  0.00000000E+00  0.00000000E+00  0.00000000E+00
