step                                    
   1.00000000000000     
     8.4506998061999994    0.0000000000000000    0.0000000000000000
    -4.2253499030999997    7.3185207118999998    0.0000000000000000
     0.0000000000000000    0.0000000000000000   24.2000007629000002
   Ir   Pd   Pt   Rh   Ru   H 
    10    10     9     9    10     1
Direct
  0.5570243323324806  0.1093240874298619  0.0388402657030283
  0.5498379807162416  0.1105316196651260  0.3071503774220198
  0.7751145692254885  0.2304113264212586  0.2170714449762253
  0.0259486711800025  0.3508343926205184  0.3962697326119872
  0.3262847278855812  0.3307348967808428  0.1256924693043319
  0.8703546284747344  0.4377258919057350  0.3095066611046011
  0.9974146618394074  0.6581975200366156  0.1248553164623614
  0.3322232711297041  0.6564787423042435  0.3903546125656462
  0.8897785461161415  0.7744695659521431  0.3066170375388340
  0.8023834082038810  0.2440919227684056  0.4689750493757647
  0.0004058537287366  0.0029786017404228  0.3991994582366269
  0.2267168434789467  0.1155875360485547  0.0307873802525529
  0.3338616205109606  0.0072254462710903  0.3998035939695776
  0.6440926330562450  0.9863310227944597  0.3963205238657605
  0.2236965864361055  0.4424207110747527  0.3025382169804969
  0.8899443233154318  0.4430514725476563  0.0320611053556859
  0.1075159655449987  0.8844152486063107  0.2151678094374541
  0.4506209531965760  0.8907482955114567  0.2149545056512182
  0.7770658648576140  0.8896067302379749  0.2158815340144271
  0.7707273368725146  0.9075440156184243  0.4846313773792983
  0.0040119577058482  0.0061809828228274  0.1250530403378294
  0.8880297599114331  0.1090828969914838  0.3059359084135617
  0.1006459969946766  0.5460416400002551  0.2158902410253066
  0.0263750466632941  0.6741279347819067  0.3988994821744026
  0.3318641522684165  0.6666037310514784  0.1272753945777004
  0.5564484522679037  0.7826554624942414  0.0354568973471929
  0.6684039025422484  0.6641442101207305  0.1272324825822483
  0.6476115382499482  0.6584613938787678  0.3993330445735656
  0.8886354421490422  0.7736913338876295  0.0351672059234829
  0.3368921348238829  0.0055447904273419  0.1252394695355545
  0.4434855590804854  0.2319732095875276  0.2167843324449775
  0.8828772398780448  0.1183286903140113  0.0368359881815230
  0.3280810768963197  0.3341813511682542  0.3935117492271443
  0.5452390936993740  0.4364401661983508  0.0373024069159837
  0.5603265156240536  0.4465724135589592  0.3058881980665609
  0.6702160245187134  0.3305993521596980  0.1272551068795381
  0.2276684040924265  0.7768417067878866  0.0373606510331950
  0.2255052679819411  0.7886048161433914  0.3068036594978743
  0.2164495919773703  0.0977004275890557  0.3050040581777664
  0.1262053026948831  0.2336794843638947  0.2153713326474282
  0.6798229902083568  0.0228784172672386  0.1247508427144884
  0.9973638906920259  0.3241331076911212  0.1252245791951969
  0.2270254571330176  0.4468824018367511  0.0406707318439608
  0.4491084646210512  0.5447078440378920  0.2149512188020896
  0.6277239147010879  0.3311210303352384  0.3988431774477321
  0.7661176710842403  0.5451564851218953  0.2172707703237001
  0.5569688221371650  0.7760253079166279  0.3043088904878200
  0.7936342156389715  0.5404736557810621  0.4715708804187451
  0.8751392456619987  0.4135461723486323  0.5177297959955321
 
  0.00000000E+00  0.00000000E+00  0.00000000E+00
  0.00000000E+00  0.00000000E+00  0.00000000E+00
  0.00000000E+00  0.00000000E+00  0.00000000E+00
  0.00000000E+00  0.00000000E+00  0.00000000E+00
  0.00000000E+00  0.00000000E+00  0.00000000E+00
  0.00000000E+00  0.00000000E+00  0.00000000E+00
  0.00000000E+00  0.00000000E+00  0.00000000E+00
  0.00000000E+00  0.00000000E+00  0.00000000E+00
  0.00000000E+00  0.00000000E+00  0.00000000E+00
  0.00000000E+00  0.00000000E+00  0.00000000E+00
  0.00000000E+00  0.00000000E+00  0.00000000E+00
  0.00000000E+00  0.00000000E+00  0.00000000E+00
  0.00000000E+00  0.00000000E+00  0.00000000E+00
  0.00000000E+00  0.00000000E+00  0.00000000E+00
  0.00000000E+00  0.00000000E+00  0.00000000E+00
  0.00000000E+00  0.00000000E+00  0.00000000E+00
  0.00000000E+00  0.00000000E+00  0.00000000E+00
  0.00000000E+00  0.00000000E+00  0.00000000E+00
  0.00000000E+00  0.00000000E+00  0.00000000E+00
  0.00000000E+00  0.00000000E+00  0.00000000E+00
  0.00000000E+00  0.00000000E+00  0.00000000E+00
  0.00000000E+00  0.00000000E+00  0.00000000E+00
  0.00000000E+00  0.00000000E+00  0.00000000E+00
  0.00000000E+00  0.00000000E+00  0.00000000E+00
  0.00000000E+00  0.00000000E+00  0.00000000E+00
  0.00000000E+00  0.00000000E+00  0.00000000E+00
  0.00000000E+00  0.00000000E+00  0.00000000E+00
  0.00000000E+00  0.00000000E+00  0.00000000E+00
  0.00000000E+00  0.00000000E+00  0.00000000E+00
  0.00000000E+00  0.00000000E+00  0.00000000E+00
  0.00000000E+00  0.00000000E+00  0.00000000E+00
  0.00000000E+00  0.00000000E+00  0.00000000E+00
  0.00000000E+00  0.00000000E+00  0.00000000E+00
  0.00000000E+00  0.00000000E+00  0.00000000E+00
  0.00000000E+00  0.00000000E+00  0.00000000E+00
  0.00000000E+00  0.00000000E+00  0.00000000E+00
  0.00000000E+00  0.00000000E+00  0.00000000E+00
  0.00000000E+00  0.00000000E+00  0.00000000E+00
  0.00000000E+00  0.00000000E+00  0.00000000E+00
  0.00000000E+00  0.00000000E+00  0.00000000E+00
  0.00000000E+00  0.00000000E+00  0.00000000E+00
  0.00000000E+00  0.00000000E+00  0.00000000E+00
  0.00000000E+00  0.00000000E+00  0.00000000E+00
  0.00000000E+00  0.00000000E+00  0.00000000E+00
  0.00000000E+00  0.00000000E+00  0.00000000E+00
  0.00000000E+00  0.00000000E+00  0.00000000E+00
  0.00000000E+00  0.00000000E+00  0.00000000E+00
  0.00000000E+00  0.00000000E+00  0.00000000E+00
  0.00000000E+00  0.00000000E+00  0.00000000E+00
