step                                    
   1.00000000000000     
     8.4506998061999994    0.0000000000000000    0.0000000000000000
    -4.2253499030999997    7.3185207118999998    0.0000000000000000
     0.0000000000000000    0.0000000000000000   24.2000007629000002
   Ir   Pd   Pt   Rh   Ru   H 
     9    10     9    10    10     1
Direct
  0.9961955642858498  0.0041955907038881  0.1267394952277018
  0.1124211220396181  0.2104894204523279  0.2162381210276723
  0.5652284225757844  0.1202592739984479  0.0404500489403618
  0.2433220062841023  0.4532104947168761  0.0412308877523796
  0.5504439832988958  0.4397443537393066  0.0401359735303459
  0.3350681736717825  0.6718472368136633  0.1253398603943626
  0.3266282645027224  0.6780930464436031  0.3955667287602440
  0.5555391151430307  0.7777109036587908  0.0397284756619400
  0.6671102563367850  0.6678179895703930  0.1280196506495467
  0.2220731337742541  0.1156317977621073  0.0351261070212193
  0.2204756539248280  0.1075430921858738  0.3082219192465232
  0.7751244544438031  0.2232060395868015  0.2173030149025193
  0.0183898606565773  0.3403483964790902  0.4039267582464980
  0.1086151144164330  0.5561783290868902  0.2167806725077850
  0.3365610810204979  0.3328435144158376  0.4044271099364234
  0.8836289507648062  0.4395508104344745  0.0351467647635031
  0.8866369843392410  0.4461705977509612  0.3123296974074287
  0.2276467675981571  0.7787620267109941  0.0349434310916619
  0.7957173510181295  0.9063133984979153  0.4858782688990743
  0.3284074945365751 -0.0043166629647923  0.4031472741349125
  0.8892173882700763  0.1065422437636037  0.3090562048655773
  0.2196656768989309  0.4437944613209647  0.3082208450243234
  0.5593972746540872  0.4425170208223799  0.3079904888126458
  0.4428788853134937  0.5496790501598864  0.2145294282177087
  0.9963514926849740  0.6636961851667014  0.1276321737450353
  0.5568287215195862  0.7829091135221974  0.3061478971240149
  0.4510496196056327  0.8952667330003721  0.2153971722244943
  0.6508043421817201  0.6655839685930356  0.3997366205508183
  0.3394613230556797  0.0076752066571510  0.1292388235086502
  0.5546723909219229  0.1122602651252526  0.3093232839934171
  0.6538629034299748 -0.0044449457629317  0.4015699510648338
  0.8736792208691555  0.1018506325774255  0.0373837645132594
  0.0019211425389068  0.3258714930824924  0.1264666393396872
  0.2202172861443963  0.7781762446334927  0.3067007198721983
  0.1057339396573609  0.8910951152690297  0.2164940521787941
  0.8699424278868707  0.7764511148191704  0.0387389015359763
  0.8954787077279682  0.7770260798923809  0.3080006757442629
  0.8180510580071938  0.5590134380054015  0.4718993485013123
 -0.0133775043312544  0.9793085279405725  0.3982827513130174
  0.4522819544158714  0.2328062041025029  0.2153330099112821
  0.6709386480377593  0.0009830012001301  0.1248896156170802
  0.3293876520510283  0.3214852466188923  0.1279621975060920
  0.6529933426990605  0.3289442464635650  0.1280136581948442
  0.6411301274830892  0.3072455892418828  0.4000134847307717
  0.7648016548463522  0.5550897882886117  0.2153530186713484
  0.0218075770685035  0.6869795632962432  0.3982261509179261
  0.7890913846302626  0.8861386767519484  0.2158225983076001
  0.7770673807654896  0.2395376142518062  0.4757284365601939
  0.1993099963340180  0.0938480881523832  0.4372078303507289
 
  0.00000000E+00  0.00000000E+00  0.00000000E+00
  0.00000000E+00  0.00000000E+00  0.00000000E+00
  0.00000000E+00  0.00000000E+00  0.00000000E+00
  0.00000000E+00  0.00000000E+00  0.00000000E+00
  0.00000000E+00  0.00000000E+00  0.00000000E+00
  0.00000000E+00  0.00000000E+00  0.00000000E+00
  0.00000000E+00  0.00000000E+00  0.00000000E+00
  0.00000000E+00  0.00000000E+00  0.00000000E+00
  0.00000000E+00  0.00000000E+00  0.00000000E+00
  0.00000000E+00  0.00000000E+00  0.00000000E+00
  0.00000000E+00  0.00000000E+00  0.00000000E+00
  0.00000000E+00  0.00000000E+00  0.00000000E+00
  0.00000000E+00  0.00000000E+00  0.00000000E+00
  0.00000000E+00  0.00000000E+00  0.00000000E+00
  0.00000000E+00  0.00000000E+00  0.00000000E+00
  0.00000000E+00  0.00000000E+00  0.00000000E+00
  0.00000000E+00  0.00000000E+00  0.00000000E+00
  0.00000000E+00  0.00000000E+00  0.00000000E+00
  0.00000000E+00  0.00000000E+00  0.00000000E+00
  0.00000000E+00  0.00000000E+00  0.00000000E+00
  0.00000000E+00  0.00000000E+00  0.00000000E+00
  0.00000000E+00  0.00000000E+00  0.00000000E+00
  0.00000000E+00  0.00000000E+00  0.00000000E+00
  0.00000000E+00  0.00000000E+00  0.00000000E+00
  0.00000000E+00  0.00000000E+00  0.00000000E+00
  0.00000000E+00  0.00000000E+00  0.00000000E+00
  0.00000000E+00  0.00000000E+00  0.00000000E+00
  0.00000000E+00  0.00000000E+00  0.00000000E+00
  0.00000000E+00  0.00000000E+00  0.00000000E+00
  0.00000000E+00  0.00000000E+00  0.00000000E+00
  0.00000000E+00  0.00000000E+00  0.00000000E+00
  0.00000000E+00  0.00000000E+00  0.00000000E+00
  0.00000000E+00  0.00000000E+00  0.00000000E+00
  0.00000000E+00  0.00000000E+00  0.00000000E+00
  0.00000000E+00  0.00000000E+00  0.00000000E+00
  0.00000000E+00  0.00000000E+00  0.00000000E+00
  0.00000000E+00  0.00000000E+00  0.00000000E+00
  0.00000000E+00  0.00000000E+00  0.00000000E+00
  0.00000000E+00  0.00000000E+00  0.00000000E+00
  0.00000000E+00  0.00000000E+00  0.00000000E+00
  0.00000000E+00  0.00000000E+00  0.00000000E+00
  0.00000000E+00  0.00000000E+00  0.00000000E+00
  0.00000000E+00  0.00000000E+00  0.00000000E+00
  0.00000000E+00  0.00000000E+00  0.00000000E+00
  0.00000000E+00  0.00000000E+00  0.00000000E+00
  0.00000000E+00  0.00000000E+00  0.00000000E+00
  0.00000000E+00  0.00000000E+00  0.00000000E+00
  0.00000000E+00  0.00000000E+00  0.00000000E+00
  0.00000000E+00  0.00000000E+00  0.00000000E+00
