hRu1Rh1Pt2                              
   1.00000000000000     
     8.4506998061999994    0.0000000000000000    0.0000000000000000
    -4.2253499030999997    7.3185207118999998    0.0000000000000000
     0.0000000000000000    0.0000000000000000   24.2000007629000002
   Ir   Pd   Pt   Rh   Ru   H 
     9     9     9     9     9     1
Direct
  0.9964694206354540  0.0040767231438394  0.1260090961359173
  0.1117331437504760  0.2099766547153220  0.2155082759117999
  0.5648947835028186  0.1199897943173859  0.0397152471570663
  0.2431769304068264  0.4530671169380506  0.0405189148121834
  0.5502522801277385  0.4394415107346190  0.0393098220424059
  0.3379193903789796  0.6721993761644508  0.1251654429087398
  0.3276992695045852  0.6723696647556718  0.3949799497809468
  0.5555335508744356  0.7778687851046184  0.0385747817850820
  0.6659674748063575  0.6686940894553191  0.1273644752458416
  0.2224367536734541  0.1155761073112674  0.0344951087407004
  0.2242868455683628  0.1091707593275493  0.3070914499262412
  0.7758466334847819  0.2218830089213206  0.2156647757425656
  0.9985845369251323  0.3361388937973320  0.4025405838559693
  0.1123594949026943  0.5590743487666253  0.2157498166101811
  0.3376973015447209  0.3372432469257991  0.4009627163282558
  0.8838789310901576  0.4395380613550960  0.0342441694139898
  0.8912480628321794  0.4473755383012381  0.3070180248297814
  0.2284694748107443  0.7784743658311651  0.0343153026855664
  0.3275501913695403 -0.0032253667816844  0.4023303661649961
  0.8906088414536730  0.1085164448013462  0.3087242759025381
  0.2194832599045119  0.4426152568903570  0.3074633003650346
  0.5599033429594036  0.4417726849245806  0.3060061321366902
  0.4458237976123671  0.5500310698744033  0.2150272387451956
  0.9968410766407969  0.6636122675387868  0.1264484730698760
  0.5577299708510666  0.7812143846349440  0.3054616620118562
  0.4488401765657296  0.8974519084167835  0.2162268347897393
  0.6723869297146786  0.6651946717643283  0.3988818544249620
  0.3398421122859979  0.0070838851057116  0.1290227442585819
  0.5578630746432376  0.1144242605683605  0.3105172651408248
  0.6635894679282490  0.9899950499896788  0.3986823710955392
  0.8755314340222253  0.1022598703251959  0.0368995719045002
  0.0031663131577356  0.3270530004081386  0.1255710672824374
  0.2226781534910919  0.7809740560153967  0.3088088263068867
  0.1040323984157825  0.8900557196992916  0.2152350738854303
  0.8699372613547012  0.7762410827059291  0.0379837925765780
  0.8953020536419662  0.7791652994081169  0.3062361801546359
  0.9919168060096838  0.9743497795816016  0.3946757491531802
  0.4532818824662747  0.2321280266988668  0.2147414427000894
  0.6695106406934852 -0.0005867208450593  0.1238297912510285
  0.3314992973597714  0.3234942448740218  0.1275771999170648
  0.6525411138765864  0.3283739413561902  0.1268127970620928
  0.6732732754824293  0.3423034678430826  0.3950976501802738
  0.7667968710339648  0.5550577459096383  0.2139474464817493
  0.0053432352577880  0.6769451398919945  0.3934681163248765
  0.7903981124005395  0.8885195044679748  0.2152713463031163
  0.5649343645868082  0.1208408620653487  0.4336434854969921
 
  0.00000000E+00  0.00000000E+00  0.00000000E+00
  0.00000000E+00  0.00000000E+00  0.00000000E+00
  0.00000000E+00  0.00000000E+00  0.00000000E+00
  0.00000000E+00  0.00000000E+00  0.00000000E+00
  0.00000000E+00  0.00000000E+00  0.00000000E+00
  0.00000000E+00  0.00000000E+00  0.00000000E+00
  0.00000000E+00  0.00000000E+00  0.00000000E+00
  0.00000000E+00  0.00000000E+00  0.00000000E+00
  0.00000000E+00  0.00000000E+00  0.00000000E+00
  0.00000000E+00  0.00000000E+00  0.00000000E+00
  0.00000000E+00  0.00000000E+00  0.00000000E+00
  0.00000000E+00  0.00000000E+00  0.00000000E+00
  0.00000000E+00  0.00000000E+00  0.00000000E+00
  0.00000000E+00  0.00000000E+00  0.00000000E+00
  0.00000000E+00  0.00000000E+00  0.00000000E+00
  0.00000000E+00  0.00000000E+00  0.00000000E+00
  0.00000000E+00  0.00000000E+00  0.00000000E+00
  0.00000000E+00  0.00000000E+00  0.00000000E+00
  0.00000000E+00  0.00000000E+00  0.00000000E+00
  0.00000000E+00  0.00000000E+00  0.00000000E+00
  0.00000000E+00  0.00000000E+00  0.00000000E+00
  0.00000000E+00  0.00000000E+00  0.00000000E+00
  0.00000000E+00  0.00000000E+00  0.00000000E+00
  0.00000000E+00  0.00000000E+00  0.00000000E+00
  0.00000000E+00  0.00000000E+00  0.00000000E+00
  0.00000000E+00  0.00000000E+00  0.00000000E+00
  0.00000000E+00  0.00000000E+00  0.00000000E+00
  0.00000000E+00  0.00000000E+00  0.00000000E+00
  0.00000000E+00  0.00000000E+00  0.00000000E+00
  0.00000000E+00  0.00000000E+00  0.00000000E+00
  0.00000000E+00  0.00000000E+00  0.00000000E+00
  0.00000000E+00  0.00000000E+00  0.00000000E+00
  0.00000000E+00  0.00000000E+00  0.00000000E+00
  0.00000000E+00  0.00000000E+00  0.00000000E+00
  0.00000000E+00  0.00000000E+00  0.00000000E+00
  0.00000000E+00  0.00000000E+00  0.00000000E+00
  0.00000000E+00  0.00000000E+00  0.00000000E+00
  0.00000000E+00  0.00000000E+00  0.00000000E+00
  0.00000000E+00  0.00000000E+00  0.00000000E+00
  0.00000000E+00  0.00000000E+00  0.00000000E+00
  0.00000000E+00  0.00000000E+00  0.00000000E+00
  0.00000000E+00  0.00000000E+00  0.00000000E+00
  0.00000000E+00  0.00000000E+00  0.00000000E+00
  0.00000000E+00  0.00000000E+00  0.00000000E+00
  0.00000000E+00  0.00000000E+00  0.00000000E+00
  0.00000000E+00  0.00000000E+00  0.00000000E+00
