step                                    
   1.00000000000000     
     8.4506998061999994    0.0000000000000000    0.0000000000000000
    -4.2253499030999997    7.3185207118999998    0.0000000000000000
     0.0000000000000000    0.0000000000000000   24.2000007629000002
   Ir   Pd   Pt   Rh   Ru   H 
     9    10     9    10    10     1
Direct
  0.5565972875605666  0.1088455209801798  0.0400871089069383
  0.5473867388970995  0.1103660919136402  0.3089379965158173
  0.7733997750429850  0.2287113787488192  0.2179997700396894
  0.0260829833801478  0.3503919528089467  0.3971374820552006
  0.3256191254266917  0.3300255991922624  0.1269449093263418
  0.8720545040482942  0.4379434287673437  0.3082078014505254
  0.9975639529311445  0.6587410778061159  0.1262426087064356
  0.3310318130250256  0.6566539173348295  0.3933229820876974
  0.8884212787895094  0.7769221238323465  0.3076465464983610
  0.0016477675639197  0.0064262423140384  0.4000656425694459
  0.2259080997156838  0.1152512329598321  0.0325402678537768
  0.3289957085589555 -0.0005696221139305  0.4026604048119782
  0.6433054079014952 -0.0121659463761412  0.3986229739480773
  0.2282227046812572  0.4456912863367613  0.3039631202886718
  0.8896442355687956  0.4426638231687272  0.0335376495779429
  0.1076505044772856  0.8844718272320922  0.2170933309516574
  0.4490239567189927  0.8867379396199260  0.2176586446820190
  0.7755760973629413  0.8889185664950700  0.2173634199938348
  0.7823151380789233  0.9298405206281110  0.4874166664565835
  0.0033649220043331  0.0052396308656476  0.1268796656169056
  0.8881143887538211  0.1110480438600260  0.3073607679740465
  0.1008510322561900  0.5462382089795318  0.2170617917407680
  0.0045446397128930  0.6606812339833529  0.3992682897547600
  0.3323470322242509  0.6667636273393379  0.1286986764596979
  0.5550892861792004  0.7817228227957073  0.0363946124825095
  0.6680674972075916  0.6641603127660584  0.1282753022570979
  0.6598076848637918  0.6624009336082630  0.4017424789723242
  0.8881236530590447  0.7735596473391889  0.0366257078020234
  0.3372444377725514  0.0043251571070228  0.1269999547599404
  0.4436676634886130  0.2320362531381545  0.2180751807906123
  0.8826736306607148  0.1176705979240333  0.0384892174079956
  0.3350936447793670  0.3428475452306520  0.3964862862628994
  0.5445928444077753  0.4356994880701542  0.0384719248422705
  0.5598893990884281  0.4474624618462401  0.3068630365310491
  0.6690405722931719  0.3296976399940029  0.1282678171122119
  0.2272422566990422  0.7756912681455767  0.0387033629102300
  0.2234099972345346  0.7880810275010850  0.3096790756021219
  0.7970994880288494  0.5190216423311043  0.4836528405456487
  0.2182915779001904  0.0995579208536071  0.3066893007109111
  0.1262149394000632  0.2332783743633298  0.2169033663785660
  0.6778743232337414  0.0214702580121086  0.1259922598146613
  0.9963024007963530  0.3226575228377523  0.1269647215898999
  0.2264308987820078  0.4465823050086249  0.0420431540312593
  0.4495947988071992  0.5447104077190514  0.2156750805750075
  0.6462137231713843  0.3375151203445239  0.3980465227526865
  0.7661943292902524  0.5449548373052093  0.2180276563824655
  0.5599017259216286  0.7753999726960384  0.3077287012949211
  0.8191959481142497  0.2510847699161503  0.4683656925708672
  0.4183841451390482  0.2235434684694894  0.4377182363526401
 
  0.00000000E+00  0.00000000E+00  0.00000000E+00
  0.00000000E+00  0.00000000E+00  0.00000000E+00
  0.00000000E+00  0.00000000E+00  0.00000000E+00
  0.00000000E+00  0.00000000E+00  0.00000000E+00
  0.00000000E+00  0.00000000E+00  0.00000000E+00
  0.00000000E+00  0.00000000E+00  0.00000000E+00
  0.00000000E+00  0.00000000E+00  0.00000000E+00
  0.00000000E+00  0.00000000E+00  0.00000000E+00
  0.00000000E+00  0.00000000E+00  0.00000000E+00
  0.00000000E+00  0.00000000E+00  0.00000000E+00
  0.00000000E+00  0.00000000E+00  0.00000000E+00
  0.00000000E+00  0.00000000E+00  0.00000000E+00
  0.00000000E+00  0.00000000E+00  0.00000000E+00
  0.00000000E+00  0.00000000E+00  0.00000000E+00
  0.00000000E+00  0.00000000E+00  0.00000000E+00
  0.00000000E+00  0.00000000E+00  0.00000000E+00
  0.00000000E+00  0.00000000E+00  0.00000000E+00
  0.00000000E+00  0.00000000E+00  0.00000000E+00
  0.00000000E+00  0.00000000E+00  0.00000000E+00
  0.00000000E+00  0.00000000E+00  0.00000000E+00
  0.00000000E+00  0.00000000E+00  0.00000000E+00
  0.00000000E+00  0.00000000E+00  0.00000000E+00
  0.00000000E+00  0.00000000E+00  0.00000000E+00
  0.00000000E+00  0.00000000E+00  0.00000000E+00
  0.00000000E+00  0.00000000E+00  0.00000000E+00
  0.00000000E+00  0.00000000E+00  0.00000000E+00
  0.00000000E+00  0.00000000E+00  0.00000000E+00
  0.00000000E+00  0.00000000E+00  0.00000000E+00
  0.00000000E+00  0.00000000E+00  0.00000000E+00
  0.00000000E+00  0.00000000E+00  0.00000000E+00
  0.00000000E+00  0.00000000E+00  0.00000000E+00
  0.00000000E+00  0.00000000E+00  0.00000000E+00
  0.00000000E+00  0.00000000E+00  0.00000000E+00
  0.00000000E+00  0.00000000E+00  0.00000000E+00
  0.00000000E+00  0.00000000E+00  0.00000000E+00
  0.00000000E+00  0.00000000E+00  0.00000000E+00
  0.00000000E+00  0.00000000E+00  0.00000000E+00
  0.00000000E+00  0.00000000E+00  0.00000000E+00
  0.00000000E+00  0.00000000E+00  0.00000000E+00
  0.00000000E+00  0.00000000E+00  0.00000000E+00
  0.00000000E+00  0.00000000E+00  0.00000000E+00
  0.00000000E+00  0.00000000E+00  0.00000000E+00
  0.00000000E+00  0.00000000E+00  0.00000000E+00
  0.00000000E+00  0.00000000E+00  0.00000000E+00
  0.00000000E+00  0.00000000E+00  0.00000000E+00
  0.00000000E+00  0.00000000E+00  0.00000000E+00
  0.00000000E+00  0.00000000E+00  0.00000000E+00
  0.00000000E+00  0.00000000E+00  0.00000000E+00
  0.00000000E+00  0.00000000E+00  0.00000000E+00
