total                                   
   1.00000000000000     
     8.4506998061999994    0.0000000000000000    0.0000000000000000
    -4.2253499030999997    7.3185207118999998    0.0000000000000000
     0.0000000000000000    0.0000000000000000   24.2000007629000002
   Ir   Pd   Pt   Rh   Ru   H 
     9     9     9     9     9     1
Direct
  0.6134683394525274  0.7240315066983436  0.1256277978254268
  0.5883254933774186  0.4845822972423409  0.3888354074254234
  0.8958551450426929  0.7123504951969868  0.4104173419982032
  0.1410746077990614  0.7613023160709730  0.0492474431816119
  0.6351011961678905  0.7031051028655234  0.2976707866225242
  0.9356986913676808  0.3868882548685295  0.2033848348607752
  0.7614204018008836  0.0940118955109793  0.1368050464811243
  0.1506814289408142  0.7508285172940516  0.3470848489610396
  0.4145613195670003  0.8780610600499085  0.1156232283781705
  0.9540792620780292  0.1500565235379495  0.3906312450970952
  0.2723925888325853  0.3502901131687201  0.4352503483101052
  0.0950650278002995  0.1939318418624959  0.1844615084441510
  0.9903755150841236  0.9328207589249151  0.1018573187374565
  0.8610007959834192  0.8431007291590744  0.2073046814629472
  0.0793124899229588  0.2710844982983786  0.0526401955071301
  0.7586999316786243  0.6063667034275878  0.0449929004594377
  0.6509431715822273  0.8333910426991691  0.4011109445913127
  0.8276134177481798  0.0881597375400428  0.2736213322169269
  0.7434895720285973  0.9331490800717844  0.0337398531065613
  0.2688419929896764  0.1089779689263494  0.0298891346257303
  0.2002803245341001  0.2578479772280622  0.2943073726639684
  0.6972548590465764  0.2409164531075377  0.3765016707132566
  0.4624876933636962  0.9587615183987847  0.0022760541593323
  0.7084342458635654  0.4850061861876666  0.1632362751753603
  0.3325724029197470  0.1134234074341493  0.3686431440101075
  0.2260676631364082  0.9645638916934033  0.2543313591384009
  0.4332629096250810  0.4849180046578204  0.2164146163501792
  0.4169171810336788  0.3880698532909772  0.0953047068952941
  0.2343560280042820  0.5327672419233214  0.1422997874797230
  0.3313209058176317  0.1019246377814053  0.1544690800622254
  0.3804540510121304  0.6357334438954643  0.0412011808970829
  0.5898657215887630  0.1700705988908807  0.2236320711337696
  0.9296405128790360  0.4519636095652670  0.0922649740922620
  0.8878739749656731  0.6027645613814738  0.2703451870078758
  0.0180632775256778  0.4878720330215794  0.4191162732473589
  0.4878228880181545  0.9270072571425090  0.3183255983108071
  0.0887850430850754  0.7300274749618220  0.1647939055136662
  0.5435266821727066  0.8524255627354903  0.2146624649608784
  0.7901651024802007  0.2484410445649670  0.0052495538705909
  0.0038193359776215  0.4091740175966198  0.3185673427879429
  0.5548243561875235  0.3564416489304371  0.2939225945984560
  0.2268777050777299  0.6437997626886306  0.2484465644642484
  0.9655299856857156  0.9090003683221204  0.3274968471619682
  0.5933727157070535  0.2252968673064666  0.0793555739024092
  0.3347982765396031  0.5752338791590073  0.3526844884184367
  0.4042658325078637  0.6914982367200621  0.4143850906912531
 
  0.00000000E+00  0.00000000E+00  0.00000000E+00
  0.00000000E+00  0.00000000E+00  0.00000000E+00
  0.00000000E+00  0.00000000E+00  0.00000000E+00
  0.00000000E+00  0.00000000E+00  0.00000000E+00
  0.00000000E+00  0.00000000E+00  0.00000000E+00
  0.00000000E+00  0.00000000E+00  0.00000000E+00
  0.00000000E+00  0.00000000E+00  0.00000000E+00
  0.00000000E+00  0.00000000E+00  0.00000000E+00
  0.00000000E+00  0.00000000E+00  0.00000000E+00
  0.00000000E+00  0.00000000E+00  0.00000000E+00
  0.00000000E+00  0.00000000E+00  0.00000000E+00
  0.00000000E+00  0.00000000E+00  0.00000000E+00
  0.00000000E+00  0.00000000E+00  0.00000000E+00
  0.00000000E+00  0.00000000E+00  0.00000000E+00
  0.00000000E+00  0.00000000E+00  0.00000000E+00
  0.00000000E+00  0.00000000E+00  0.00000000E+00
  0.00000000E+00  0.00000000E+00  0.00000000E+00
  0.00000000E+00  0.00000000E+00  0.00000000E+00
  0.00000000E+00  0.00000000E+00  0.00000000E+00
  0.00000000E+00  0.00000000E+00  0.00000000E+00
  0.00000000E+00  0.00000000E+00  0.00000000E+00
  0.00000000E+00  0.00000000E+00  0.00000000E+00
  0.00000000E+00  0.00000000E+00  0.00000000E+00
  0.00000000E+00  0.00000000E+00  0.00000000E+00
  0.00000000E+00  0.00000000E+00  0.00000000E+00
  0.00000000E+00  0.00000000E+00  0.00000000E+00
  0.00000000E+00  0.00000000E+00  0.00000000E+00
  0.00000000E+00  0.00000000E+00  0.00000000E+00
  0.00000000E+00  0.00000000E+00  0.00000000E+00
  0.00000000E+00  0.00000000E+00  0.00000000E+00
  0.00000000E+00  0.00000000E+00  0.00000000E+00
  0.00000000E+00  0.00000000E+00  0.00000000E+00
  0.00000000E+00  0.00000000E+00  0.00000000E+00
  0.00000000E+00  0.00000000E+00  0.00000000E+00
  0.00000000E+00  0.00000000E+00  0.00000000E+00
  0.00000000E+00  0.00000000E+00  0.00000000E+00
  0.00000000E+00  0.00000000E+00  0.00000000E+00
  0.00000000E+00  0.00000000E+00  0.00000000E+00
  0.00000000E+00  0.00000000E+00  0.00000000E+00
  0.00000000E+00  0.00000000E+00  0.00000000E+00
  0.00000000E+00  0.00000000E+00  0.00000000E+00
  0.00000000E+00  0.00000000E+00  0.00000000E+00
  0.00000000E+00  0.00000000E+00  0.00000000E+00
  0.00000000E+00  0.00000000E+00  0.00000000E+00
  0.00000000E+00  0.00000000E+00  0.00000000E+00
  0.00000000E+00  0.00000000E+00  0.00000000E+00
