step                                    
   1.00000000000000     
     8.4506998061999994    0.0000000000000000    0.0000000000000000
    -4.2253499030999997    7.3185207118999998    0.0000000000000000
     0.0000000000000000    0.0000000000000000   24.2000007629000002
   Ir   Pd   Pt   Rh   Ru
     9    10     9    10    10
Direct
  0.5561024072563263  0.1085736900890331  0.0398189586568356
  0.5473628334569396  0.1099448072066998  0.3084156738291871
  0.7732796217950847  0.2287511543395626  0.2178621316078380
  0.0252172858704198  0.3502434551794609  0.3964919080727408
  0.3252063297326666  0.3296112917151092  0.1266666788806894
  0.8709911761191307  0.4371749509310320  0.3089771922015824
  0.9974908103791617  0.6579348581969706  0.1258664263482834
  0.3299847539078897  0.6543080362031684  0.3929213569495213
  0.8888426078376359  0.7766087289737073  0.3073362788276521
  0.0022422724014062  0.0070378696312149  0.3998771020121933
  0.2256039184248051  0.1150004181084051  0.0321340877331404
  0.3306288372262878  0.0045749357963750  0.4010191539779276
  0.6396849974232354 -0.0150898007057559  0.3977643825240123
  0.2271902581905026  0.4444938454709889  0.3036060487567451
  0.8892701891225333  0.4424197561319771  0.0331803857150190
  0.1074423461014338  0.8837939826694788  0.2165427996625147
  0.4493991304693598  0.8873736891946844  0.2169912826151927
  0.7756148173132167  0.8884327590731953  0.2169768362261287
  0.7805397919923405  0.9294036457972528  0.4863828229781423
  0.0032922452039042  0.0049818446666896  0.1264855578415497
  0.8871914822617083  0.1099535310213436  0.3071292981237871
  0.1001797764462938  0.5452618151827622  0.2169963079024989
  0.0101447277660883  0.6659267732996698  0.3990322862139116
  0.3315588688491197  0.6660974253429367  0.1283846406292312
  0.5549435214951788  0.7817545182456109  0.0362345369975709
  0.6678188522183133  0.6637703916310088  0.1279157319834693
  0.6571456580639093  0.6606790854084140  0.4009750648588545
  0.8876699078233456  0.7731307980181110  0.0362947359176596
  0.3369800052256035  0.0041381167707052  0.1266627554842696
  0.4436171014297970  0.2316634919758530  0.2176556288622571
  0.8819712272869349  0.1171383746562343  0.0381421000919952
  0.3358982078448925  0.3401288391587838  0.3955294383822125
  0.5442659369668675  0.4354488123243047  0.0381859920618794
  0.5597459733912966  0.4483313763881558  0.3062036261257538
  0.6692689406149325  0.3297665714280527  0.1280385541366525
  0.2268799664088136  0.7756933057261507  0.0383460405600846
  0.2233568079289951  0.7864000438665057  0.3088865457743003
  0.7917751917708349  0.5193244001023213  0.4804412206992946
  0.2173175165008232  0.0984233591160572  0.3062895646165122
  0.1262382843236620  0.2329107281972553  0.2166258248108996
  0.6780618140743043  0.0214669954207041  0.1257497316692967
  0.9962118943828798  0.3225863367833099  0.1265019320445563
  0.2260260239683482  0.4459377911953087  0.0417073938841049
  0.4494580106315781  0.5441872551452384  0.2153640136926556
  0.6325808472120240  0.3304744920763205  0.3975307324347792
  0.7667148803597102  0.5450616641841513  0.2177913024497736
  0.5584946630862986  0.7743360996830516  0.3067809115939420
  0.8123272054431635  0.2494931709824257  0.4662570345808934
 
  0.00000000E+00  0.00000000E+00  0.00000000E+00
  0.00000000E+00  0.00000000E+00  0.00000000E+00
  0.00000000E+00  0.00000000E+00  0.00000000E+00
  0.00000000E+00  0.00000000E+00  0.00000000E+00
  0.00000000E+00  0.00000000E+00  0.00000000E+00
  0.00000000E+00  0.00000000E+00  0.00000000E+00
  0.00000000E+00  0.00000000E+00  0.00000000E+00
  0.00000000E+00  0.00000000E+00  0.00000000E+00
  0.00000000E+00  0.00000000E+00  0.00000000E+00
  0.00000000E+00  0.00000000E+00  0.00000000E+00
  0.00000000E+00  0.00000000E+00  0.00000000E+00
  0.00000000E+00  0.00000000E+00  0.00000000E+00
  0.00000000E+00  0.00000000E+00  0.00000000E+00
  0.00000000E+00  0.00000000E+00  0.00000000E+00
  0.00000000E+00  0.00000000E+00  0.00000000E+00
  0.00000000E+00  0.00000000E+00  0.00000000E+00
  0.00000000E+00  0.00000000E+00  0.00000000E+00
  0.00000000E+00  0.00000000E+00  0.00000000E+00
  0.00000000E+00  0.00000000E+00  0.00000000E+00
  0.00000000E+00  0.00000000E+00  0.00000000E+00
  0.00000000E+00  0.00000000E+00  0.00000000E+00
  0.00000000E+00  0.00000000E+00  0.00000000E+00
  0.00000000E+00  0.00000000E+00  0.00000000E+00
  0.00000000E+00  0.00000000E+00  0.00000000E+00
  0.00000000E+00  0.00000000E+00  0.00000000E+00
  0.00000000E+00  0.00000000E+00  0.00000000E+00
  0.00000000E+00  0.00000000E+00  0.00000000E+00
  0.00000000E+00  0.00000000E+00  0.00000000E+00
  0.00000000E+00  0.00000000E+00  0.00000000E+00
  0.00000000E+00  0.00000000E+00  0.00000000E+00
  0.00000000E+00  0.00000000E+00  0.00000000E+00
  0.00000000E+00  0.00000000E+00  0.00000000E+00
  0.00000000E+00  0.00000000E+00  0.00000000E+00
  0.00000000E+00  0.00000000E+00  0.00000000E+00
  0.00000000E+00  0.00000000E+00  0.00000000E+00
  0.00000000E+00  0.00000000E+00  0.00000000E+00
  0.00000000E+00  0.00000000E+00  0.00000000E+00
  0.00000000E+00  0.00000000E+00  0.00000000E+00
  0.00000000E+00  0.00000000E+00  0.00000000E+00
  0.00000000E+00  0.00000000E+00  0.00000000E+00
  0.00000000E+00  0.00000000E+00  0.00000000E+00
  0.00000000E+00  0.00000000E+00  0.00000000E+00
  0.00000000E+00  0.00000000E+00  0.00000000E+00
  0.00000000E+00  0.00000000E+00  0.00000000E+00
  0.00000000E+00  0.00000000E+00  0.00000000E+00
  0.00000000E+00  0.00000000E+00  0.00000000E+00
  0.00000000E+00  0.00000000E+00  0.00000000E+00
  0.00000000E+00  0.00000000E+00  0.00000000E+00
