step                                    
   1.00000000000000     
     8.4506998061999994    0.0000000000000000    0.0000000000000000
    -4.2253499030999997    7.3185207118999998    0.0000000000000000
     0.0000000000000000    0.0000000000000000   24.2000007629000002
   Ir   Pd   Pt   Rh   Ru   H 
    10     9     9    11     9     1
Direct
  0.9959073255639793  0.0070290696673920  0.1265723379848391
  0.1105162852822268  0.2135357447364800  0.2154882526624257
  0.5653740695658623  0.1239313720058192  0.0400429065803988
  0.2431049278980576  0.4567581404530358  0.0404715205224108
  0.5500738063671601  0.4427589268636519  0.0396314764918681
  0.3348414405115837  0.6740482158013020  0.1249117685079215
  0.3208971331372405  0.6754653822228198  0.3983061636918427
  0.5553728301967520  0.7810769325206453  0.0392606164353986
  0.6644103625754342  0.6698818978384529  0.1281317386724296
  0.8075858957548847  0.5723051111855987  0.4679138010427435
  0.2202192515806072  0.1190775767880034  0.0348694565286951
  0.2218385866102926  0.1116169284678686  0.3060587569855183
  0.7756867912437992  0.2265626690317310  0.2165852106299685
  0.0005868838505022  0.3303288861977253  0.4041103676196028
  0.1084161379717177  0.5593740191859806  0.2165678798000475
  0.3226277208802894  0.3213195252584849  0.4019946201136824
  0.8837251506330402  0.4430343550470180  0.0344678928767631
  0.8849102735344468  0.4483626791578916  0.3115862728758820
  0.2274681127280929  0.7818256571411020  0.0346330624468064
  0.3245923238652152 -0.0027369489081594  0.4005594568455692
  0.8863488809979971  0.1063211003904838  0.3097524193382163
  0.2151627819514641  0.4443053251566899  0.3089568759309206
  0.5584056715134369  0.4437923428373898  0.3076342424218176
  0.4416673063560829  0.5529157848301050  0.2152726321443608
  0.9954007239910290  0.6659685919127212  0.1272116050795273
  0.5511215579696380  0.7854074311326024  0.3064633914495167
  0.4511596437025645  0.8996272902949403  0.2149654742806355
  0.6306064880000115  0.6600240005769865  0.3981520202555183
  0.3389534538474414  0.0104425965299127  0.1284644930906619
  0.5557026882485450  0.1140399238877894  0.3087795403182829
  0.6474628882972868 -0.0019454106074950  0.4039573545898374
  0.8732968935024588  0.1042365225983160  0.0369508849414882
  0.0022745159081239  0.3300003506311099  0.1256974412823341
  0.2169678672441837  0.7804460050685615  0.3059528316295084
  0.1047926480464084  0.8949287122293603  0.2151984213294598
  0.8696445167298529  0.7802995361036451  0.0386635210773657
  0.8940945515326520  0.7819094197697447  0.3086009983341464
  0.8213681140072969  0.8850204584078224  0.4761507933834608
  0.7711829776089135  0.2617662621116956  0.4824100954299385
  0.0043411357098843  0.9859728508490910  0.3974178688698887
  0.4535191677699491  0.2351672899540656  0.2140492312063258
  0.6700918586913537  0.0027619371899031  0.1245327812067414
  0.3305037687650144  0.3271806408324007  0.1280630196233800
  0.6534813031600666  0.3334458237141879  0.1273063420291861
  0.6343743154096588  0.3026564896736795  0.3991549883608211
  0.7638111806050469  0.5585587258687239  0.2153852921324982
  0.0201282516429086  0.6887747103756166  0.3969977457118828
  0.7904109322555726  0.8919332690462046  0.2149696569110177
  0.2754483757839597  0.6482555179708994  0.4627644813264450
 
  0.00000000E+00  0.00000000E+00  0.00000000E+00
  0.00000000E+00  0.00000000E+00  0.00000000E+00
  0.00000000E+00  0.00000000E+00  0.00000000E+00
  0.00000000E+00  0.00000000E+00  0.00000000E+00
  0.00000000E+00  0.00000000E+00  0.00000000E+00
  0.00000000E+00  0.00000000E+00  0.00000000E+00
  0.00000000E+00  0.00000000E+00  0.00000000E+00
  0.00000000E+00  0.00000000E+00  0.00000000E+00
  0.00000000E+00  0.00000000E+00  0.00000000E+00
  0.00000000E+00  0.00000000E+00  0.00000000E+00
  0.00000000E+00  0.00000000E+00  0.00000000E+00
  0.00000000E+00  0.00000000E+00  0.00000000E+00
  0.00000000E+00  0.00000000E+00  0.00000000E+00
  0.00000000E+00  0.00000000E+00  0.00000000E+00
  0.00000000E+00  0.00000000E+00  0.00000000E+00
  0.00000000E+00  0.00000000E+00  0.00000000E+00
  0.00000000E+00  0.00000000E+00  0.00000000E+00
  0.00000000E+00  0.00000000E+00  0.00000000E+00
  0.00000000E+00  0.00000000E+00  0.00000000E+00
  0.00000000E+00  0.00000000E+00  0.00000000E+00
  0.00000000E+00  0.00000000E+00  0.00000000E+00
  0.00000000E+00  0.00000000E+00  0.00000000E+00
  0.00000000E+00  0.00000000E+00  0.00000000E+00
  0.00000000E+00  0.00000000E+00  0.00000000E+00
  0.00000000E+00  0.00000000E+00  0.00000000E+00
  0.00000000E+00  0.00000000E+00  0.00000000E+00
  0.00000000E+00  0.00000000E+00  0.00000000E+00
  0.00000000E+00  0.00000000E+00  0.00000000E+00
  0.00000000E+00  0.00000000E+00  0.00000000E+00
  0.00000000E+00  0.00000000E+00  0.00000000E+00
  0.00000000E+00  0.00000000E+00  0.00000000E+00
  0.00000000E+00  0.00000000E+00  0.00000000E+00
  0.00000000E+00  0.00000000E+00  0.00000000E+00
  0.00000000E+00  0.00000000E+00  0.00000000E+00
  0.00000000E+00  0.00000000E+00  0.00000000E+00
  0.00000000E+00  0.00000000E+00  0.00000000E+00
  0.00000000E+00  0.00000000E+00  0.00000000E+00
  0.00000000E+00  0.00000000E+00  0.00000000E+00
  0.00000000E+00  0.00000000E+00  0.00000000E+00
  0.00000000E+00  0.00000000E+00  0.00000000E+00
  0.00000000E+00  0.00000000E+00  0.00000000E+00
  0.00000000E+00  0.00000000E+00  0.00000000E+00
  0.00000000E+00  0.00000000E+00  0.00000000E+00
  0.00000000E+00  0.00000000E+00  0.00000000E+00
  0.00000000E+00  0.00000000E+00  0.00000000E+00
  0.00000000E+00  0.00000000E+00  0.00000000E+00
  0.00000000E+00  0.00000000E+00  0.00000000E+00
  0.00000000E+00  0.00000000E+00  0.00000000E+00
  0.00000000E+00  0.00000000E+00  0.00000000E+00
