fRu1Pd1Rh1                              
   1.00000000000000     
     8.4506998061999994    0.0000000000000000    0.0000000000000000
    -4.2253499030999997    7.3185207118999998    0.0000000000000000
     0.0000000000000000    0.0000000000000000   24.2000007629000002
   Ir   Pd   Pt   Rh   Ru   H 
     9     9     9     9     9     1
Direct
  0.9960434258038240  0.0045021054043174  0.1260518866473516
  0.1107127618631130  0.2101986338998644  0.2154756224942602
  0.5649150806780555  0.1203915628371567  0.0396348775333729
  0.2430137230909718  0.4528995978653492  0.0404553537928942
  0.5502430226425963  0.4396862914987467  0.0392876791030482
  0.3369931663392913  0.6720505342552635  0.1250252258577458
  0.3263955628097022  0.6757668324858148  0.3951418417901831
  0.5553899333268038  0.7777484379078535  0.0385905663746913
  0.6656157438203318  0.6686384380130755  0.1274071894125479
  0.2222176659413328  0.1157723663984166  0.0344716570532771
  0.2228588131531821  0.1095044738610596  0.3066919981278386
  0.7748840510949332  0.2220417323544279  0.2158354474748819
  0.0003353876664437  0.3392640899124352  0.4041348040607506
  0.1106438628439801  0.5580746597192104  0.2160665852957638
  0.3371354403764742  0.3366275582591794  0.4010615249189096
  0.8839629999535756  0.4399724730449474  0.0341941312207680
  0.8877052672472285  0.4461502599262862  0.3082953543194772
  0.2281261447375179  0.7784096387161340  0.0342436462827957
  0.3304505590547282  0.0009084868743270  0.4007499170104248
  0.8891656980791952  0.1076497295873659  0.3088372199162289
  0.2176408222773636  0.4424330692543945  0.3079977943390613
  0.5585125353586705  0.4417641159283698  0.3056839938539653
  0.4441229092211889  0.5496699789873656  0.2147621761895734
  0.9965556038578033  0.6634845988923173  0.1264807362794773
  0.5566846179737254  0.7804874759296967  0.3055116297511454
  0.4482510799935057  0.8970366893005449  0.2160928105311883
  0.6737246590946036  0.6630466857906164  0.3983929489537176
  0.3398720645124126  0.0070332975809178  0.1288327447454331
  0.5558539469694218  0.1128858683492042  0.3105273721434119
  0.6607827058416519 -0.0091610433955649  0.3985375761543244
  0.8752522727092787  0.1023551890756451  0.0367990249364057
  0.0027735276664999  0.3272987116458840  0.1254966156578993
  0.2208161312610506  0.7801261644310005  0.3081472503497380
  0.1034552323276668  0.8901402850075913  0.2149876880014350
  0.8698405706832437  0.7763672997178347  0.0380558192287728
  0.8950671445570635  0.7789249880886715  0.3058990115795367
  0.9918906145830882  0.9728501520144471  0.3949061141049151
  0.4530142198971083  0.2322201659245557  0.2145080211930744
  0.6693891590082560 -0.0004205099935797  0.1236945972389892
  0.3307798989713450  0.3231775054308271  0.1274956353128002
  0.6523282134880434  0.3284482107579892  0.1268403930464604
  0.6590661016309940  0.3285787998945335  0.3954066472556326
  0.7656639969108164  0.5546999636173338  0.2139937029831007
  0.0101389884289915  0.6831711935727339  0.3935156588835352
  0.7893671096773760  0.8880430823731895  0.2152390374837436
  0.7653672825755348  0.2090897340022455  0.4343624801154513
 
  0.00000000E+00  0.00000000E+00  0.00000000E+00
  0.00000000E+00  0.00000000E+00  0.00000000E+00
  0.00000000E+00  0.00000000E+00  0.00000000E+00
  0.00000000E+00  0.00000000E+00  0.00000000E+00
  0.00000000E+00  0.00000000E+00  0.00000000E+00
  0.00000000E+00  0.00000000E+00  0.00000000E+00
  0.00000000E+00  0.00000000E+00  0.00000000E+00
  0.00000000E+00  0.00000000E+00  0.00000000E+00
  0.00000000E+00  0.00000000E+00  0.00000000E+00
  0.00000000E+00  0.00000000E+00  0.00000000E+00
  0.00000000E+00  0.00000000E+00  0.00000000E+00
  0.00000000E+00  0.00000000E+00  0.00000000E+00
  0.00000000E+00  0.00000000E+00  0.00000000E+00
  0.00000000E+00  0.00000000E+00  0.00000000E+00
  0.00000000E+00  0.00000000E+00  0.00000000E+00
  0.00000000E+00  0.00000000E+00  0.00000000E+00
  0.00000000E+00  0.00000000E+00  0.00000000E+00
  0.00000000E+00  0.00000000E+00  0.00000000E+00
  0.00000000E+00  0.00000000E+00  0.00000000E+00
  0.00000000E+00  0.00000000E+00  0.00000000E+00
  0.00000000E+00  0.00000000E+00  0.00000000E+00
  0.00000000E+00  0.00000000E+00  0.00000000E+00
  0.00000000E+00  0.00000000E+00  0.00000000E+00
  0.00000000E+00  0.00000000E+00  0.00000000E+00
  0.00000000E+00  0.00000000E+00  0.00000000E+00
  0.00000000E+00  0.00000000E+00  0.00000000E+00
  0.00000000E+00  0.00000000E+00  0.00000000E+00
  0.00000000E+00  0.00000000E+00  0.00000000E+00
  0.00000000E+00  0.00000000E+00  0.00000000E+00
  0.00000000E+00  0.00000000E+00  0.00000000E+00
  0.00000000E+00  0.00000000E+00  0.00000000E+00
  0.00000000E+00  0.00000000E+00  0.00000000E+00
  0.00000000E+00  0.00000000E+00  0.00000000E+00
  0.00000000E+00  0.00000000E+00  0.00000000E+00
  0.00000000E+00  0.00000000E+00  0.00000000E+00
  0.00000000E+00  0.00000000E+00  0.00000000E+00
  0.00000000E+00  0.00000000E+00  0.00000000E+00
  0.00000000E+00  0.00000000E+00  0.00000000E+00
  0.00000000E+00  0.00000000E+00  0.00000000E+00
  0.00000000E+00  0.00000000E+00  0.00000000E+00
  0.00000000E+00  0.00000000E+00  0.00000000E+00
  0.00000000E+00  0.00000000E+00  0.00000000E+00
  0.00000000E+00  0.00000000E+00  0.00000000E+00
  0.00000000E+00  0.00000000E+00  0.00000000E+00
  0.00000000E+00  0.00000000E+00  0.00000000E+00
  0.00000000E+00  0.00000000E+00  0.00000000E+00
