5L_3x3_(1\1\1)                          
   1.00000000000000     
     8.4506998061999994    0.0000000000000000    0.0000000000000000
    -4.2253499030999997    7.3185207118999998    0.0000000000000000
     0.0000000000000000    0.0000000000000000   24.2000007629000002
   Ir   Pd   Pt   Rh   Ru
     9     9     9     9     9
Direct
 -0.0033618022003673  0.0046480693810213  0.1255115878275893
  0.1112561287548701  0.2100470225883646  0.2149620623423588
  0.5650093090214888  0.1203567897152660  0.0392168758692673
  0.2432397695534075  0.4531244231025024  0.0399333226670260
  0.5503815428680233  0.4399021338757952  0.0387045033718076
  0.3374829691115553  0.6719302926654527  0.1245547791143064
  0.3267643366879072  0.6751951562821038  0.3945497165439858
  0.5555404267046421  0.7779113455056008  0.0379778301905924
  0.6653562411443968  0.6687696331982096  0.1269204153010963
  0.2221455137812957  0.1156519080774269  0.0339161335712700
  0.2239153880212353  0.1096800129858838  0.3062709769087273
  0.7754802102081235  0.2222106776404074  0.2151451102009775
 -0.0050702018911747  0.3362358018382107  0.4022028423335926
  0.1117368652533770  0.5588083763042440  0.2152897526573603
  0.3368088464849249  0.3360376395591341  0.4005221761432992
  0.8838884734166519  0.4400988007524294  0.0336809320921927
  0.8899645435487058  0.4473881973145988  0.3070513854535193
  0.2284500259552323  0.7790138476326264  0.0338486447840114
  0.3331257406041472  0.0012690034487697  0.4000050600926059
  0.8907626484774305  0.1087853999614549  0.3081489165531698
  0.2189284138143980  0.4426017950914777  0.3072520148791940
  0.5596779255108812  0.4414066702389886  0.3054739478000323
  0.4457556671483247  0.5503423292922962  0.2147258871843126
 -0.0032810286033969  0.6639047815682881  0.1258957698152999
  0.5575122863330645  0.7804043968175293  0.3048550386677458
  0.4487687476055121  0.8974081673308885  0.2154564848058527
  0.6732485735551709  0.6635008355410423  0.3981907067570979
  0.3398217822141423  0.0075242268724277  0.1283619448823673
  0.5574750062605777  0.1130777266556425  0.3100234526425442
  0.6624484440466564 -0.0083648389709762  0.3967214360218943
  0.8751317717112379  0.1022026389585024  0.0362632774427525
  0.0032167765240732  0.3273871463427386  0.1249429834039790
  0.2217933947643879  0.7806030291493675  0.3076506609484807
  0.1039889332675127  0.8901817873725195  0.2146088067149917
  0.8699486565247032  0.7766716271503066  0.0375157669311721
  0.8951728991210436  0.7791543668927013  0.3056253463747902
 -0.0087370570028878 -0.0262562976605851  0.3942409248582582
  0.4529253235107331  0.2322474638170359  0.2138798048567806
  0.6697017878530601 -0.0005094020144274  0.1231803226302706
  0.3316658657469219  0.3246230191105788  0.1270238059717985
  0.6525908262267509  0.3290466319418283  0.1262653580753307
  0.6628139377034925  0.3304449078324176  0.3937102486350932
  0.7664729985266938  0.5551397570531801  0.2133828306402296
  0.0097642665676542  0.6813932225789843  0.3928654115631402
  0.7903271645634036  0.8887897582077046  0.2147246354778649
 
  0.00000000E+00  0.00000000E+00  0.00000000E+00
  0.00000000E+00  0.00000000E+00  0.00000000E+00
  0.00000000E+00  0.00000000E+00  0.00000000E+00
  0.00000000E+00  0.00000000E+00  0.00000000E+00
  0.00000000E+00  0.00000000E+00  0.00000000E+00
  0.00000000E+00  0.00000000E+00  0.00000000E+00
  0.00000000E+00  0.00000000E+00  0.00000000E+00
  0.00000000E+00  0.00000000E+00  0.00000000E+00
  0.00000000E+00  0.00000000E+00  0.00000000E+00
  0.00000000E+00  0.00000000E+00  0.00000000E+00
  0.00000000E+00  0.00000000E+00  0.00000000E+00
  0.00000000E+00  0.00000000E+00  0.00000000E+00
  0.00000000E+00  0.00000000E+00  0.00000000E+00
  0.00000000E+00  0.00000000E+00  0.00000000E+00
  0.00000000E+00  0.00000000E+00  0.00000000E+00
  0.00000000E+00  0.00000000E+00  0.00000000E+00
  0.00000000E+00  0.00000000E+00  0.00000000E+00
  0.00000000E+00  0.00000000E+00  0.00000000E+00
  0.00000000E+00  0.00000000E+00  0.00000000E+00
  0.00000000E+00  0.00000000E+00  0.00000000E+00
  0.00000000E+00  0.00000000E+00  0.00000000E+00
  0.00000000E+00  0.00000000E+00  0.00000000E+00
  0.00000000E+00  0.00000000E+00  0.00000000E+00
  0.00000000E+00  0.00000000E+00  0.00000000E+00
  0.00000000E+00  0.00000000E+00  0.00000000E+00
  0.00000000E+00  0.00000000E+00  0.00000000E+00
  0.00000000E+00  0.00000000E+00  0.00000000E+00
  0.00000000E+00  0.00000000E+00  0.00000000E+00
  0.00000000E+00  0.00000000E+00  0.00000000E+00
  0.00000000E+00  0.00000000E+00  0.00000000E+00
  0.00000000E+00  0.00000000E+00  0.00000000E+00
  0.00000000E+00  0.00000000E+00  0.00000000E+00
  0.00000000E+00  0.00000000E+00  0.00000000E+00
  0.00000000E+00  0.00000000E+00  0.00000000E+00
  0.00000000E+00  0.00000000E+00  0.00000000E+00
  0.00000000E+00  0.00000000E+00  0.00000000E+00
  0.00000000E+00  0.00000000E+00  0.00000000E+00
  0.00000000E+00  0.00000000E+00  0.00000000E+00
  0.00000000E+00  0.00000000E+00  0.00000000E+00
  0.00000000E+00  0.00000000E+00  0.00000000E+00
  0.00000000E+00  0.00000000E+00  0.00000000E+00
  0.00000000E+00  0.00000000E+00  0.00000000E+00
  0.00000000E+00  0.00000000E+00  0.00000000E+00
  0.00000000E+00  0.00000000E+00  0.00000000E+00
  0.00000000E+00  0.00000000E+00  0.00000000E+00
