5L_3x3_(1\1\1)                          
   1.00000000000000     
     8.4506998061999994    0.0000000000000000    0.0000000000000000
    -4.2253499030999997    7.3185207118999998    0.0000000000000000
     0.0000000000000000    0.0000000000000000   24.2000007629000002
   Ir   Pd   Pt   Rh   Ru
     9     8     9     9     9
Direct
  0.9969517086884216  0.0058746556611513  0.1253779955173726
  0.1118958604126781  0.2104910945557930  0.2149520988394716
  0.5649235800195949  0.1202151137289400  0.0388761685852561
  0.2422983204158412  0.4522988065266749  0.0397897267143072
  0.5505033597136545  0.4404579302184030  0.0387606527068896
  0.3357061238061355  0.6715033832538615  0.1245364318500943
  0.3392387176587257  0.6862184327351605  0.3932151162417302
  0.5556014947415236  0.7764820126446639  0.0383138122625209
  0.6657989084725947  0.6684553896625570  0.1269818909959231
  0.2225313855036310  0.1155931930145874  0.0335671853616298
  0.2234600038669499  0.1100254317763258  0.3063268423241852
  0.7756322180578468  0.2222203959518574  0.2159915115891344
  0.1094398845802544  0.5561146704455135  0.2161964251026977
  0.3348307851841325  0.3376561527367647  0.3999392896301948
  0.8840851652223916  0.4400164152203227  0.0335570400796028
  0.8913033271797567  0.4409055944600430  0.3120480975066590
  0.2285249442514233  0.7789870186940262  0.0334845473528483
  0.3355021869429337  0.0053203091223560  0.4008499726543115
  0.8942742346587065  0.1117254879975455  0.3096708143785375
  0.2146203579958201  0.4428909476373105  0.3098928050627812
  0.5587001013114967  0.4411346083214531  0.3046316426063456
  0.4447799842742748  0.5501655062178031  0.2142833565433477
  0.9974180525456400  0.6630991317378664  0.1260046947470225
  0.5602451348008640  0.7818430918319713  0.3030782875382889
  0.4477202927695620  0.8979551731763027  0.2149746691596231
  0.6713247692300709  0.6635652629914378  0.3976162542551860
  0.3395193333115701  0.0074683550495197  0.1278854389111447
  0.5598941230388479  0.1134731207115625  0.3100787697875948
  0.6591756996849779  0.9846687248359879  0.3955150034720573
  0.8754858429436509  0.1026360133007360  0.0361167707823487
  0.0022369713725691  0.3272393058676966  0.1252063775250861
  0.2204248567844810  0.7783325045702710  0.3074105074379225
  0.1048710727878688  0.8912134784899034  0.2140996398275133
  0.8705152901264942  0.7772132786945366  0.0377577062202648
  0.8952131282698016  0.7755196439185619  0.3044880048202742
  0.9943731172726642  0.9694054335856056  0.3938584679053136
  0.4520530931691711  0.2319260233089347  0.2133813395913915
  0.6700224071613269  0.0007630276703778  0.1229411066424606
  0.3312377756045118  0.3247591647747993  0.1267959339788456
  0.6533867332857023  0.3276435918591120  0.1262291671082820
  0.6507663085610057  0.3320966833979392  0.3937216208452580
  0.7658772571629908  0.5541267336872484  0.2132021678639956
  0.0135122142128053  0.6880695068033916  0.3930158370568478
  0.7892044138357938  0.8859846763148692  0.2144258602838657
 
  0.00000000E+00  0.00000000E+00  0.00000000E+00
  0.00000000E+00  0.00000000E+00  0.00000000E+00
  0.00000000E+00  0.00000000E+00  0.00000000E+00
  0.00000000E+00  0.00000000E+00  0.00000000E+00
  0.00000000E+00  0.00000000E+00  0.00000000E+00
  0.00000000E+00  0.00000000E+00  0.00000000E+00
  0.00000000E+00  0.00000000E+00  0.00000000E+00
  0.00000000E+00  0.00000000E+00  0.00000000E+00
  0.00000000E+00  0.00000000E+00  0.00000000E+00
  0.00000000E+00  0.00000000E+00  0.00000000E+00
  0.00000000E+00  0.00000000E+00  0.00000000E+00
  0.00000000E+00  0.00000000E+00  0.00000000E+00
  0.00000000E+00  0.00000000E+00  0.00000000E+00
  0.00000000E+00  0.00000000E+00  0.00000000E+00
  0.00000000E+00  0.00000000E+00  0.00000000E+00
  0.00000000E+00  0.00000000E+00  0.00000000E+00
  0.00000000E+00  0.00000000E+00  0.00000000E+00
  0.00000000E+00  0.00000000E+00  0.00000000E+00
  0.00000000E+00  0.00000000E+00  0.00000000E+00
  0.00000000E+00  0.00000000E+00  0.00000000E+00
  0.00000000E+00  0.00000000E+00  0.00000000E+00
  0.00000000E+00  0.00000000E+00  0.00000000E+00
  0.00000000E+00  0.00000000E+00  0.00000000E+00
  0.00000000E+00  0.00000000E+00  0.00000000E+00
  0.00000000E+00  0.00000000E+00  0.00000000E+00
  0.00000000E+00  0.00000000E+00  0.00000000E+00
  0.00000000E+00  0.00000000E+00  0.00000000E+00
  0.00000000E+00  0.00000000E+00  0.00000000E+00
  0.00000000E+00  0.00000000E+00  0.00000000E+00
  0.00000000E+00  0.00000000E+00  0.00000000E+00
  0.00000000E+00  0.00000000E+00  0.00000000E+00
  0.00000000E+00  0.00000000E+00  0.00000000E+00
  0.00000000E+00  0.00000000E+00  0.00000000E+00
  0.00000000E+00  0.00000000E+00  0.00000000E+00
  0.00000000E+00  0.00000000E+00  0.00000000E+00
  0.00000000E+00  0.00000000E+00  0.00000000E+00
  0.00000000E+00  0.00000000E+00  0.00000000E+00
  0.00000000E+00  0.00000000E+00  0.00000000E+00
  0.00000000E+00  0.00000000E+00  0.00000000E+00
  0.00000000E+00  0.00000000E+00  0.00000000E+00
  0.00000000E+00  0.00000000E+00  0.00000000E+00
  0.00000000E+00  0.00000000E+00  0.00000000E+00
  0.00000000E+00  0.00000000E+00  0.00000000E+00
  0.00000000E+00  0.00000000E+00  0.00000000E+00
