Amorphous+H                             
   1.00000000000000     
     8.4506998061999994    0.0000000000000000    0.0000000000000000
    -4.2253499030999997    7.3185207118999998    0.0000000000000000
     0.0000000000000000    0.0000000000000000   24.2000007629000002
   Ir   Pd   Pt   Rh   Ru   H 
     9     9     9     9     9     1
Direct
  0.7039091592226903  0.6506299955893443  0.0340815557943448
  0.9112373303016579  0.1217855481389995  0.3282987385880065
  0.4816928836970281  0.5772865499101387  0.4094563884501612
  0.5940346467339950  0.7943144981398030  0.3259914931889325
  0.0294060549286833  0.3553573866722096  0.2380458979238828
  0.2167517819920382  0.1702124543245301  0.2691537601628981
  0.4155914984395233  0.6065928804306385  0.0937440951068039
  0.3072803470229800  0.7448679842969137  0.3873990579230602
  0.0588584287897262  0.6364866672643277  0.3056243977207709
  0.8990021941424460  0.4718572983248345  0.0470163017039802
  0.7119565846813086  0.3000445901829652  0.2972506887225884
  0.8848232368025706  0.8200700129830591  0.2717209805185725
  0.7589632981454630  0.9455399535633401  0.0904574299498766
  0.7970115330891362  0.2421251368571299  0.1460376726301475
  0.3530248204538033  0.6761163379965561  0.2390618174964818
  0.6880575797119004  0.0132704294249395  0.2373979523456421
  0.5698523196983197  0.1262411968031807  0.0480193804309771
  0.1712106591430017  0.8636630353901109  0.2089474279853110
  0.8381177928669612  0.5272989234399091  0.2088793415747905
  0.6520704398712088  0.7118549729535805  0.1795946997899507
  0.2291053480864051  0.4373268549393617  0.3317906864391957
  0.8918044230979424  0.1740066916315160  0.0016165459237417
  0.2329017461097803  0.7959455132573052  0.0538874987497598
  0.4613596532200782  0.9077162238469302  0.1471168418500424
  0.9940374614424519  0.0558110296281506  0.1788611396202077
  0.3917812575544898  0.3252683228735107  0.0304196675999874
  0.0521599040004308  0.9783533910750248  0.0305628125052725
  0.6130147983579587  0.4232214994791956  0.1202540255401579
  0.1027596094513994  0.2836041143369758  0.0903942999166173
  0.4269000338081842  0.2700621560009080  0.3597736891646288
  0.5325477258237761  0.4892698192389237  0.2688079561156254
  0.1246997209729647  0.5687758897225302  0.1457425635929490
  0.2842129376977276  0.0908622954077162  0.1183379022350974
  0.3756840233994802  0.9746089374000068  0.3031085248365417
  0.9251841604889840  0.3976119530466371  0.3859379786393478
  0.6185988825659972  0.0669368371147260  0.3855666626338897
  0.3143989307569068  0.3714441486908955  0.1778169868798967
  0.2231277570653615  0.5079849162155660  0.0060171877892866
  0.8065479788958977  0.8859174836743936  0.4090989091109774
  0.7444559501734360  0.5815978988280490  0.3613296647284557
  0.0199196987377174  0.7206814863310174  0.4159457178924998
  0.9393339552529235  0.7444534124134770  0.1157807248345401
  0.5243248381661458  0.7921063643231160  0.0031180441014786
  0.4860229623553708  0.1972822934456801  0.2074541466505931
  0.1032809214214560  0.9838633517176979  0.3604339029317704
  0.7060926073623011  0.0164912956741604  0.4426267667102557
 
  0.00000000E+00  0.00000000E+00  0.00000000E+00
  0.00000000E+00  0.00000000E+00  0.00000000E+00
  0.00000000E+00  0.00000000E+00  0.00000000E+00
  0.00000000E+00  0.00000000E+00  0.00000000E+00
  0.00000000E+00  0.00000000E+00  0.00000000E+00
  0.00000000E+00  0.00000000E+00  0.00000000E+00
  0.00000000E+00  0.00000000E+00  0.00000000E+00
  0.00000000E+00  0.00000000E+00  0.00000000E+00
  0.00000000E+00  0.00000000E+00  0.00000000E+00
  0.00000000E+00  0.00000000E+00  0.00000000E+00
  0.00000000E+00  0.00000000E+00  0.00000000E+00
  0.00000000E+00  0.00000000E+00  0.00000000E+00
  0.00000000E+00  0.00000000E+00  0.00000000E+00
  0.00000000E+00  0.00000000E+00  0.00000000E+00
  0.00000000E+00  0.00000000E+00  0.00000000E+00
  0.00000000E+00  0.00000000E+00  0.00000000E+00
  0.00000000E+00  0.00000000E+00  0.00000000E+00
  0.00000000E+00  0.00000000E+00  0.00000000E+00
  0.00000000E+00  0.00000000E+00  0.00000000E+00
  0.00000000E+00  0.00000000E+00  0.00000000E+00
  0.00000000E+00  0.00000000E+00  0.00000000E+00
  0.00000000E+00  0.00000000E+00  0.00000000E+00
  0.00000000E+00  0.00000000E+00  0.00000000E+00
  0.00000000E+00  0.00000000E+00  0.00000000E+00
  0.00000000E+00  0.00000000E+00  0.00000000E+00
  0.00000000E+00  0.00000000E+00  0.00000000E+00
  0.00000000E+00  0.00000000E+00  0.00000000E+00
  0.00000000E+00  0.00000000E+00  0.00000000E+00
  0.00000000E+00  0.00000000E+00  0.00000000E+00
  0.00000000E+00  0.00000000E+00  0.00000000E+00
  0.00000000E+00  0.00000000E+00  0.00000000E+00
  0.00000000E+00  0.00000000E+00  0.00000000E+00
  0.00000000E+00  0.00000000E+00  0.00000000E+00
  0.00000000E+00  0.00000000E+00  0.00000000E+00
  0.00000000E+00  0.00000000E+00  0.00000000E+00
  0.00000000E+00  0.00000000E+00  0.00000000E+00
  0.00000000E+00  0.00000000E+00  0.00000000E+00
  0.00000000E+00  0.00000000E+00  0.00000000E+00
  0.00000000E+00  0.00000000E+00  0.00000000E+00
  0.00000000E+00  0.00000000E+00  0.00000000E+00
  0.00000000E+00  0.00000000E+00  0.00000000E+00
  0.00000000E+00  0.00000000E+00  0.00000000E+00
  0.00000000E+00  0.00000000E+00  0.00000000E+00
  0.00000000E+00  0.00000000E+00  0.00000000E+00
  0.00000000E+00  0.00000000E+00  0.00000000E+00
  0.00000000E+00  0.00000000E+00  0.00000000E+00
