step                                    
   1.00000000000000     
     8.4506998061999994    0.0000000000000000    0.0000000000000000
    -4.2253499030999997    7.3185207118999998    0.0000000000000000
     0.0000000000000000    0.0000000000000000   24.2000007629000002
   Ir   Pd   Pt   Rh   Ru   H 
     9    10     9     9    11     1
Direct
  0.9958929298583900  0.0045375385799916  0.1257249100057113
  0.1131678474842937  0.2111882517567070  0.2146706773032492
  0.5656360928129240  0.1203692568554469  0.0395083611356247
  0.2440503139066844  0.4544783512401123  0.0396242961158481
  0.5509045730428918  0.4399812404803946  0.0390062596884017
  0.3368321128328040  0.6714293660894965  0.1244685001248851
  0.3219743403999804  0.6791007546581679  0.3947253016474982
  0.5561242440154710  0.7785628245836829  0.0385876691238155
  0.6673104213371192  0.6691003422402877  0.1275872905509305
  0.2215202949268482  0.1163870678701741  0.0339121131588695
  0.2257117267130945  0.1092180328727421  0.3046842594685056
  0.7770213345796070  0.2238201774332635  0.2155404194905874
  0.0042017270598633  0.3421726139092138  0.4025505685590917
  0.1102353207713624  0.5566376909813169  0.2154495197704277
  0.3201135777504025  0.3164479581814733  0.4019882279333966
  0.8841381324020169  0.4398371266906520  0.0336376717405740
  0.8880568107166581  0.4502578409788093  0.3101487735291080
  0.2282931618499036  0.7785720320736641  0.0339571203659975
  0.7727067933414697  0.2173644075000128  0.4859527961847978
  0.3343967479584278  0.0023494812022496  0.4009079883467447
  0.8917039331411517  0.1070672307091870  0.3102766292653376
  0.2181900414125860  0.4429353258693705  0.3080523669166804
  0.5589730937224676  0.4384563335309452  0.3057862981844400
  0.4435348464750639  0.5501530856037866  0.2146492765715632
  0.9966998755425570  0.6640066163709764  0.1263841778138659
  0.5556719434802811  0.7841045227159760  0.3048084386008022
  0.4513646915017940  0.8979103240515764  0.2137072760672427
  0.6188371191638817  0.6439041973400380  0.3975569221100655
  0.3375190714584871  0.0082634743159990  0.1275077035341607
  0.5602094844531842  0.1141388490254621  0.3070844051526176
  0.6425764709694967  0.9928052917759520  0.3992850360095208
  0.8736905770708095  0.1020053881884072  0.0360652938267371
  0.0026225624535756  0.3267843937526136  0.1248271749389093
  0.2215805653982768  0.7802370122973867  0.3046823835162606
  0.1055116636638501  0.8912558422083852  0.2152229472878551
  0.8704706316418016  0.7769354822235532  0.0378007312266263
  0.8910550564532080  0.7802666165449550  0.3113649363597939
  0.0223676046424844 -0.0039760046131492  0.3982023251829375
  0.4537766967188597  0.2330137800452043  0.2128123514645534
  0.6722840712061158 -0.0000622119842960  0.1239683823963483
  0.3309041227754416  0.3248602070469162  0.1268387738275700
  0.6551682520499650  0.3321398633463953  0.1266266820994426
  0.6446567334530228  0.3126977269872233  0.3988537527767446
  0.7667210228025882  0.5554457531225786  0.2142435476999718
  0.0278223380168879  0.6898112802328673  0.3973742566340120
  0.7909490047038616  0.8893155706849539  0.2153837022125759
  0.8156978933540722  0.5721553561033874  0.4623332746837265
  0.8243294192979526  0.9039229915380358  0.4650644624750205
  0.8624324352160502  0.0772630067874468  0.5126437699205512
 
  0.00000000E+00  0.00000000E+00  0.00000000E+00
  0.00000000E+00  0.00000000E+00  0.00000000E+00
  0.00000000E+00  0.00000000E+00  0.00000000E+00
  0.00000000E+00  0.00000000E+00  0.00000000E+00
  0.00000000E+00  0.00000000E+00  0.00000000E+00
  0.00000000E+00  0.00000000E+00  0.00000000E+00
  0.00000000E+00  0.00000000E+00  0.00000000E+00
  0.00000000E+00  0.00000000E+00  0.00000000E+00
  0.00000000E+00  0.00000000E+00  0.00000000E+00
  0.00000000E+00  0.00000000E+00  0.00000000E+00
  0.00000000E+00  0.00000000E+00  0.00000000E+00
  0.00000000E+00  0.00000000E+00  0.00000000E+00
  0.00000000E+00  0.00000000E+00  0.00000000E+00
  0.00000000E+00  0.00000000E+00  0.00000000E+00
  0.00000000E+00  0.00000000E+00  0.00000000E+00
  0.00000000E+00  0.00000000E+00  0.00000000E+00
  0.00000000E+00  0.00000000E+00  0.00000000E+00
  0.00000000E+00  0.00000000E+00  0.00000000E+00
  0.00000000E+00  0.00000000E+00  0.00000000E+00
  0.00000000E+00  0.00000000E+00  0.00000000E+00
  0.00000000E+00  0.00000000E+00  0.00000000E+00
  0.00000000E+00  0.00000000E+00  0.00000000E+00
  0.00000000E+00  0.00000000E+00  0.00000000E+00
  0.00000000E+00  0.00000000E+00  0.00000000E+00
  0.00000000E+00  0.00000000E+00  0.00000000E+00
  0.00000000E+00  0.00000000E+00  0.00000000E+00
  0.00000000E+00  0.00000000E+00  0.00000000E+00
  0.00000000E+00  0.00000000E+00  0.00000000E+00
  0.00000000E+00  0.00000000E+00  0.00000000E+00
  0.00000000E+00  0.00000000E+00  0.00000000E+00
  0.00000000E+00  0.00000000E+00  0.00000000E+00
  0.00000000E+00  0.00000000E+00  0.00000000E+00
  0.00000000E+00  0.00000000E+00  0.00000000E+00
  0.00000000E+00  0.00000000E+00  0.00000000E+00
  0.00000000E+00  0.00000000E+00  0.00000000E+00
  0.00000000E+00  0.00000000E+00  0.00000000E+00
  0.00000000E+00  0.00000000E+00  0.00000000E+00
  0.00000000E+00  0.00000000E+00  0.00000000E+00
  0.00000000E+00  0.00000000E+00  0.00000000E+00
  0.00000000E+00  0.00000000E+00  0.00000000E+00
  0.00000000E+00  0.00000000E+00  0.00000000E+00
  0.00000000E+00  0.00000000E+00  0.00000000E+00
  0.00000000E+00  0.00000000E+00  0.00000000E+00
  0.00000000E+00  0.00000000E+00  0.00000000E+00
  0.00000000E+00  0.00000000E+00  0.00000000E+00
  0.00000000E+00  0.00000000E+00  0.00000000E+00
  0.00000000E+00  0.00000000E+00  0.00000000E+00
  0.00000000E+00  0.00000000E+00  0.00000000E+00
  0.00000000E+00  0.00000000E+00  0.00000000E+00
