total                                   
   1.00000000000000     
     8.4506998061999994    0.0000000000000000    0.0000000000000000
    -4.2253499030999997    7.3185207118999998    0.0000000000000000
     0.0000000000000000    0.0000000000000000   24.2000007629000002
   Ir   Pd   Pt   Rh   Ru   H 
     9     9     9     9     9     1
Direct
  0.6167369879806467  0.7259727164221700  0.1249545128086858
  0.5996233667509788  0.4878136316810363  0.3870221129998585
  0.9049168656013724  0.7239826968601402  0.4102686898508138
  0.1438083928397155  0.7626109159263993  0.0485918221773994
  0.6416488867893315  0.7043024346862921  0.2960280102789235
  0.9388259631359895  0.3880679348670758  0.2026397771449693
  0.7642977172432340  0.0954851608167398  0.1357561149689846
  0.1555401767685262  0.7516891900490573  0.3478279967178414
  0.4169745361141733  0.8790789093991793  0.1150404540031474
  0.9660535952015239  0.1500234763840742  0.3933901264633688
  0.2889579851145825  0.3814476796060071  0.4342156694959303
  0.0973906697683267  0.1949400028013548  0.1842495302038553
  0.9928699684550296  0.9351379827251756  0.1008809672397623
  0.8652145160549045  0.8455111302663717  0.2064365600827936
  0.0820807599105910  0.2730065127812846  0.0519212394409858
  0.7622810762803583  0.6090392486616832  0.0440438051399002
  0.6518529009772641  0.8305428673210113  0.3985577185866563
  0.8292954987058043  0.0900282616263745  0.2738606026198453
  0.7456797610630425  0.9342980526489031  0.0327158001864274
  0.2708188447404782  0.1101557554615388  0.0289545627544743
  0.2050943572768613  0.2627530048757056  0.2937431738257313
  0.6996684867753827  0.2369213057993088  0.3738391878303965
  0.4648659074450973  0.9603612132362181  0.0014102776348105
  0.7116409589029840  0.4864078802837500  0.1622818878401123
  0.3348399217419190  0.1184911254819279  0.3677865108561875
  0.2300617033775628  0.9676019332038478  0.2535032604042409
  0.4374644485201988  0.4873758054966321  0.2149394132419224
  0.4204474152108503  0.3903517136269577  0.0942365738487421
  0.2362230784502558  0.5336289743659153  0.1413583860931377
  0.3339369126597045  0.1038630508018780  0.1534871425538266
  0.3830138507845121  0.6376783306579989  0.0404459396401721
  0.5930787240524573  0.1716167246446288  0.2224658095263223
  0.9313330272212417  0.4529259572313786  0.0914196923862498
  0.8949169086598594  0.6060147889773949  0.2692996821550268
  0.0167681378664003  0.4886975288883280  0.4192362791306717
  0.4894722121525134  0.9247143124784366  0.3173333830884495
  0.0905652987133004  0.7311604807988724  0.1638625794113870
  0.5474441067840895  0.8548107524981300  0.2140878637431033
  0.7929243224902931  0.2499256216271531  0.0043586475373383
  0.0069233295705057  0.4099358362598512  0.3185082444456322
  0.5594277838586839  0.3579494306674489  0.2926281137261953
  0.2291930934704023  0.6439648333950911  0.2476783637697501
  0.9719994219129583  0.9137136150071570  0.3259050791591655
  0.5949579121659573  0.2258183889938607  0.0784116810854826
  0.3404756616986790  0.5806196938756911  0.3484257019661625
  0.0518846157414394  0.3213831068345934  0.4544210279351675
 
  0.00000000E+00  0.00000000E+00  0.00000000E+00
  0.00000000E+00  0.00000000E+00  0.00000000E+00
  0.00000000E+00  0.00000000E+00  0.00000000E+00
  0.00000000E+00  0.00000000E+00  0.00000000E+00
  0.00000000E+00  0.00000000E+00  0.00000000E+00
  0.00000000E+00  0.00000000E+00  0.00000000E+00
  0.00000000E+00  0.00000000E+00  0.00000000E+00
  0.00000000E+00  0.00000000E+00  0.00000000E+00
  0.00000000E+00  0.00000000E+00  0.00000000E+00
  0.00000000E+00  0.00000000E+00  0.00000000E+00
  0.00000000E+00  0.00000000E+00  0.00000000E+00
  0.00000000E+00  0.00000000E+00  0.00000000E+00
  0.00000000E+00  0.00000000E+00  0.00000000E+00
  0.00000000E+00  0.00000000E+00  0.00000000E+00
  0.00000000E+00  0.00000000E+00  0.00000000E+00
  0.00000000E+00  0.00000000E+00  0.00000000E+00
  0.00000000E+00  0.00000000E+00  0.00000000E+00
  0.00000000E+00  0.00000000E+00  0.00000000E+00
  0.00000000E+00  0.00000000E+00  0.00000000E+00
  0.00000000E+00  0.00000000E+00  0.00000000E+00
  0.00000000E+00  0.00000000E+00  0.00000000E+00
  0.00000000E+00  0.00000000E+00  0.00000000E+00
  0.00000000E+00  0.00000000E+00  0.00000000E+00
  0.00000000E+00  0.00000000E+00  0.00000000E+00
  0.00000000E+00  0.00000000E+00  0.00000000E+00
  0.00000000E+00  0.00000000E+00  0.00000000E+00
  0.00000000E+00  0.00000000E+00  0.00000000E+00
  0.00000000E+00  0.00000000E+00  0.00000000E+00
  0.00000000E+00  0.00000000E+00  0.00000000E+00
  0.00000000E+00  0.00000000E+00  0.00000000E+00
  0.00000000E+00  0.00000000E+00  0.00000000E+00
  0.00000000E+00  0.00000000E+00  0.00000000E+00
  0.00000000E+00  0.00000000E+00  0.00000000E+00
  0.00000000E+00  0.00000000E+00  0.00000000E+00
  0.00000000E+00  0.00000000E+00  0.00000000E+00
  0.00000000E+00  0.00000000E+00  0.00000000E+00
  0.00000000E+00  0.00000000E+00  0.00000000E+00
  0.00000000E+00  0.00000000E+00  0.00000000E+00
  0.00000000E+00  0.00000000E+00  0.00000000E+00
  0.00000000E+00  0.00000000E+00  0.00000000E+00
  0.00000000E+00  0.00000000E+00  0.00000000E+00
  0.00000000E+00  0.00000000E+00  0.00000000E+00
  0.00000000E+00  0.00000000E+00  0.00000000E+00
  0.00000000E+00  0.00000000E+00  0.00000000E+00
  0.00000000E+00  0.00000000E+00  0.00000000E+00
  0.00000000E+00  0.00000000E+00  0.00000000E+00
