total                                   
   1.00000000000000     
     8.4506998061999994    0.0000000000000000    0.0000000000000000
    -4.2253499030999997    7.3185207118999998    0.0000000000000000
     0.0000000000000000    0.0000000000000000   24.2000007629000002
   Ir   Pd   Pt   Rh   Ru   H 
     9     9     9     9     9     1
Direct
  0.9812678511630759  0.0022642412272551  0.0059786116721672
  0.4727934760191858  0.0055295235297610  0.0080378514222628
  0.0666453885762091  0.1931929676434690  0.3182093031941518
  0.6068667331337391  0.7597783405761437  0.2899374961083175
  0.4233007145067790  0.3958621620507074  0.3260552619127158
  0.8365322447992252  0.6774483235242685  0.0426376209293816
  0.2469976800407127  0.0461787141033363  0.3598818324337595
  0.4664774437942987  0.4741564434365836  0.2140342643008273
  0.8938675972441802  0.8409689884589925  0.3534414449598038
  0.6402269915351513  0.8308072297959527  0.1745472846383785
  0.9447284620523376  0.9651891370259567  0.1168094360717812
  0.5016478132062325  0.5438441451255653  0.0888678369150007
  0.1411557847645148  0.8386875069776336  0.1733620650846505
  0.7885221917322870  0.1267674843494037  0.2519164150524560
  0.3382621557699073  0.2294458077397742  0.0088051579159795
  0.6370852440785025  0.3224494278310628  0.0712807954090131
  0.1348607357964252  0.3215472605146407  0.0714944784267636
  0.2868493769676344  0.6084756686615812  0.1559852839881083
  0.9277260966561839  0.9016985602020803  0.2370844616169832
  0.1109013910123424  0.2594285628282496  0.1942606340295219
  0.9618889281154070  0.4857477252002090  0.2159530085823196
  0.0741024306452076  0.6960433799247860  0.3961592599726059
  0.6004859494045268  0.2625066781148616  0.1958693896741953
  0.2463041700715538  0.5482016798338056  0.2758940013427801
  0.2197887161010961  0.4762878774861659  0.3919554489804385
  0.4240445178994745  0.9064686190197538  0.2373894507076333
  0.4676544798870849  0.9658896449691677  0.1172134458755173
  0.1734674772297436  0.8973696526617093  0.0611608679931716
  0.9877585733552843  0.5386067066058053  0.1060816887296478
  0.6200798023429016  0.7901558586539169  0.0081156848305355
  0.2862086384275413  0.6735968860711724  0.0397994064933955
  0.7105301407990023  0.4809092610418475  0.3852713541238594
  0.4005612666651246  0.8477039759636995  0.3527626110075558
  0.9453503159490187  0.4444812409749480  0.0078968391242961
  0.8248695466657127  0.2018486692739026  0.1380973121980646
  0.5747920071146838  0.1972526711371760  0.3171050509030349
  0.7488089221621290  0.5488755974688909  0.2784015081818784
  0.7838360792295399  0.1149664476228719  0.0390916375340367
  0.5826040098181724  0.7115883090580400  0.3954506204108562
  0.2862069780938103  0.1265221793199646  0.2500710346655577
  0.1036415813186633  0.7659878349211741  0.2898399365190445
  0.9224858032221460  0.3982780330276650  0.3316021305098066
  0.3213319687488759  0.1879879288250809  0.1331512784230875
  0.7722093702974429  0.6117114204694631  0.1600648431394656
  0.7445261620789546  0.0386107097473905  0.3621747213975135
  0.3737567465079737  0.5726605570041191  0.4436099935976626
 
  0.00000000E+00  0.00000000E+00  0.00000000E+00
  0.00000000E+00  0.00000000E+00  0.00000000E+00
  0.00000000E+00  0.00000000E+00  0.00000000E+00
  0.00000000E+00  0.00000000E+00  0.00000000E+00
  0.00000000E+00  0.00000000E+00  0.00000000E+00
  0.00000000E+00  0.00000000E+00  0.00000000E+00
  0.00000000E+00  0.00000000E+00  0.00000000E+00
  0.00000000E+00  0.00000000E+00  0.00000000E+00
  0.00000000E+00  0.00000000E+00  0.00000000E+00
  0.00000000E+00  0.00000000E+00  0.00000000E+00
  0.00000000E+00  0.00000000E+00  0.00000000E+00
  0.00000000E+00  0.00000000E+00  0.00000000E+00
  0.00000000E+00  0.00000000E+00  0.00000000E+00
  0.00000000E+00  0.00000000E+00  0.00000000E+00
  0.00000000E+00  0.00000000E+00  0.00000000E+00
  0.00000000E+00  0.00000000E+00  0.00000000E+00
  0.00000000E+00  0.00000000E+00  0.00000000E+00
  0.00000000E+00  0.00000000E+00  0.00000000E+00
  0.00000000E+00  0.00000000E+00  0.00000000E+00
  0.00000000E+00  0.00000000E+00  0.00000000E+00
  0.00000000E+00  0.00000000E+00  0.00000000E+00
  0.00000000E+00  0.00000000E+00  0.00000000E+00
  0.00000000E+00  0.00000000E+00  0.00000000E+00
  0.00000000E+00  0.00000000E+00  0.00000000E+00
  0.00000000E+00  0.00000000E+00  0.00000000E+00
  0.00000000E+00  0.00000000E+00  0.00000000E+00
  0.00000000E+00  0.00000000E+00  0.00000000E+00
  0.00000000E+00  0.00000000E+00  0.00000000E+00
  0.00000000E+00  0.00000000E+00  0.00000000E+00
  0.00000000E+00  0.00000000E+00  0.00000000E+00
  0.00000000E+00  0.00000000E+00  0.00000000E+00
  0.00000000E+00  0.00000000E+00  0.00000000E+00
  0.00000000E+00  0.00000000E+00  0.00000000E+00
  0.00000000E+00  0.00000000E+00  0.00000000E+00
  0.00000000E+00  0.00000000E+00  0.00000000E+00
  0.00000000E+00  0.00000000E+00  0.00000000E+00
  0.00000000E+00  0.00000000E+00  0.00000000E+00
  0.00000000E+00  0.00000000E+00  0.00000000E+00
  0.00000000E+00  0.00000000E+00  0.00000000E+00
  0.00000000E+00  0.00000000E+00  0.00000000E+00
  0.00000000E+00  0.00000000E+00  0.00000000E+00
  0.00000000E+00  0.00000000E+00  0.00000000E+00
  0.00000000E+00  0.00000000E+00  0.00000000E+00
  0.00000000E+00  0.00000000E+00  0.00000000E+00
  0.00000000E+00  0.00000000E+00  0.00000000E+00
  0.00000000E+00  0.00000000E+00  0.00000000E+00
