step                                    
   1.00000000000000     
     8.4506998061999994    0.0000000000000000    0.0000000000000000
    -4.2253499030999997    7.3185207118999998    0.0000000000000000
     0.0000000000000000    0.0000000000000000   24.2000007629000002
   Ir   Pd   Pt   Rh   Ru
    10    10     9     9    10
Direct
  0.5568365006274932  0.1090728530328732  0.0399739180613881
  0.5503175490949905  0.1099366140991594  0.3086406368350076
  0.7748351860552020  0.2300932044382301  0.2181043892224897
  0.0257484695141743  0.3506092487263474  0.3963363988076111
  0.3258079579295461  0.3307502568582070  0.1267614713917733
  0.8701560044697317  0.4377395240881742  0.3104362508366936
  0.9976329042905971  0.6581489634426764  0.1258889079467325
  0.3314467744828393  0.6548949676298459  0.3920783315764852
  0.8899120603234316  0.7748771593917571  0.3077838169351961
  0.8042450319711042  0.2450059110191384  0.4687477505986475
 -0.0003430799807327  0.0035479678687541  0.4003764030481892
  0.2267865771599001  0.1154912735341050  0.0319885372215974
  0.3306719441651569  0.0041640149464542  0.4009366879332600
  0.6403725532068207 -0.0179015511589427  0.3977392188046801
  0.2250496707006376  0.4430958827702932  0.3035894610509279
  0.8898292639426851  0.4431101472866759  0.0331373791327377
  0.1072481845616044  0.8836916396074146  0.2163630433921195
  0.4510594352967196  0.8899845207713023  0.2164905569799623
  0.7766330595314647  0.8887151561710330  0.2169321457626752
  0.7765384751600787  0.9235490664088443  0.4871657596729800
  0.0040545604726585  0.0059509639805140  0.1263121890049170
  0.8871267746359073  0.1082905506126214  0.3071140791076774
  0.1008697126393682  0.5458721917022481  0.2169418913287603
  0.0224084295106043  0.6707653584382989  0.3999762810697411
  0.3318341690944314  0.6666397953157353  0.1283894012423273
  0.5560301289984679  0.7826817444772380  0.0365293619299797
  0.6684399797657196  0.6641138586866743  0.1281034517457125
  0.6511627161589456  0.6589932956745128  0.4021937596233637
  0.8887620410641238  0.7738509774344660  0.0362381123789868
  0.3373563444480908  0.0054174326817997  0.1267007607805323
  0.4436589253216667  0.2320373400516720  0.2177247110021712
  0.8827443523453865  0.1181427446356654  0.0380699576709573
  0.3291501679976153  0.3357344520048527  0.3949075949190348
  0.5449940265042480  0.4363570974301858  0.0383650630983741
  0.5600901023310715  0.4471326193884763  0.3066246034266843
  0.6701061978965002  0.3305107641245303  0.1282201273531368
  0.2275696714662820  0.7770375839952838  0.0384228644708709
  0.2253126935537441  0.7876865767414232  0.3080952392010868
  0.2165878632543204  0.0972545721224099  0.3061188642294354
  0.1262729837977139  0.2332917616731758  0.2165286349957459
  0.6794589314367170  0.0224931212083776  0.1259181353127581
  0.9971875901956359  0.3239290238845844  0.1264206089839764
  0.2267739648754175  0.4463550144656604  0.0417270971753926
  0.4496148111602198  0.5449058600777643  0.2159286064805542
  0.6207985355933135  0.3282513153223854  0.3982696738955443
  0.7664706114201058  0.5455410191642893  0.2181453280611534
  0.5581928291001399  0.7746769010699802  0.3061089699744488
  0.7954162864581378  0.5225687247028290  0.4734035783255152
 
  0.00000000E+00  0.00000000E+00  0.00000000E+00
  0.00000000E+00  0.00000000E+00  0.00000000E+00
  0.00000000E+00  0.00000000E+00  0.00000000E+00
  0.00000000E+00  0.00000000E+00  0.00000000E+00
  0.00000000E+00  0.00000000E+00  0.00000000E+00
  0.00000000E+00  0.00000000E+00  0.00000000E+00
  0.00000000E+00  0.00000000E+00  0.00000000E+00
  0.00000000E+00  0.00000000E+00  0.00000000E+00
  0.00000000E+00  0.00000000E+00  0.00000000E+00
  0.00000000E+00  0.00000000E+00  0.00000000E+00
  0.00000000E+00  0.00000000E+00  0.00000000E+00
  0.00000000E+00  0.00000000E+00  0.00000000E+00
  0.00000000E+00  0.00000000E+00  0.00000000E+00
  0.00000000E+00  0.00000000E+00  0.00000000E+00
  0.00000000E+00  0.00000000E+00  0.00000000E+00
  0.00000000E+00  0.00000000E+00  0.00000000E+00
  0.00000000E+00  0.00000000E+00  0.00000000E+00
  0.00000000E+00  0.00000000E+00  0.00000000E+00
  0.00000000E+00  0.00000000E+00  0.00000000E+00
  0.00000000E+00  0.00000000E+00  0.00000000E+00
  0.00000000E+00  0.00000000E+00  0.00000000E+00
  0.00000000E+00  0.00000000E+00  0.00000000E+00
  0.00000000E+00  0.00000000E+00  0.00000000E+00
  0.00000000E+00  0.00000000E+00  0.00000000E+00
  0.00000000E+00  0.00000000E+00  0.00000000E+00
  0.00000000E+00  0.00000000E+00  0.00000000E+00
  0.00000000E+00  0.00000000E+00  0.00000000E+00
  0.00000000E+00  0.00000000E+00  0.00000000E+00
  0.00000000E+00  0.00000000E+00  0.00000000E+00
  0.00000000E+00  0.00000000E+00  0.00000000E+00
  0.00000000E+00  0.00000000E+00  0.00000000E+00
  0.00000000E+00  0.00000000E+00  0.00000000E+00
  0.00000000E+00  0.00000000E+00  0.00000000E+00
  0.00000000E+00  0.00000000E+00  0.00000000E+00
  0.00000000E+00  0.00000000E+00  0.00000000E+00
  0.00000000E+00  0.00000000E+00  0.00000000E+00
  0.00000000E+00  0.00000000E+00  0.00000000E+00
  0.00000000E+00  0.00000000E+00  0.00000000E+00
  0.00000000E+00  0.00000000E+00  0.00000000E+00
  0.00000000E+00  0.00000000E+00  0.00000000E+00
  0.00000000E+00  0.00000000E+00  0.00000000E+00
  0.00000000E+00  0.00000000E+00  0.00000000E+00
  0.00000000E+00  0.00000000E+00  0.00000000E+00
  0.00000000E+00  0.00000000E+00  0.00000000E+00
  0.00000000E+00  0.00000000E+00  0.00000000E+00
  0.00000000E+00  0.00000000E+00  0.00000000E+00
  0.00000000E+00  0.00000000E+00  0.00000000E+00
  0.00000000E+00  0.00000000E+00  0.00000000E+00
