step                                    
   1.00000000000000     
     8.4506998061999994    0.0000000000000000    0.0000000000000000
    -4.2253499030999997    7.3185207118999998    0.0000000000000000
     0.0000000000000000    0.0000000000000000   24.2000007629000002
   Ir   Pd   Pt   Rh   Ru   H 
     9    10     9     9    11     1
Direct
  0.9952513814383529  0.0034077786470714  0.1269867766911815
  0.1122305121449529  0.2103414189418216  0.2160248980175350
  0.5648925206436266  0.1198624674393054  0.0407802622416983
  0.2429872969718251  0.4537430746441457  0.0408966849253861
  0.5500248861979977  0.4392554825049142  0.0403055400551151
  0.3356014017356357  0.6702344522993177  0.1257172297673572
  0.3207770304168571  0.6743140365678079  0.3960162864550649
  0.5553370334915575  0.7771344830933227  0.0398874905789244
  0.6665645340601027  0.6681271014490674  0.1288950428397099
  0.2205271651711770  0.1153842199336345  0.0352384293356776
  0.2252781985063396  0.1088651103276895  0.3064335476290885
  0.7761293538607024  0.2227396104472924  0.2167704231816982
 -0.0017723698585066  0.3377599855252638  0.4047385458860698
  0.1086421291300003  0.5557228634145338  0.2167848923696450
  0.3177948169957892  0.3206980461863735  0.4028673933213616
  0.8834339141780385  0.4390463532740054  0.0349569311179490
  0.8862200590825288  0.4487786102336442  0.3117080379329928
  0.2276174317634631  0.7780549809818674  0.0351276532289109
  0.7570602711111551  0.2077484419581195  0.4863039375163333
  0.3371888199111918  0.0054727549772530  0.4041630304459140
  0.8894085500613393  0.1058049924302575  0.3113578153035024
  0.2152302443490400  0.4414975432699034  0.3088335690814071
  0.5582598979485150  0.4384552434690555  0.3072826922773486
  0.4428040137340054  0.5486639813985142  0.2158731981395340
  0.9960824996943003  0.6635916744972076  0.1276770455573880
  0.5548094869697801  0.7826179139742824  0.3062783072471073
  0.4500970480312411  0.8954133037952444  0.2150299289272170
  0.6221565809115117  0.6444644051669660  0.3994350715603753
  0.3375524154138044  0.0073666657189789  0.1288116339555004
  0.5567380192081400  0.1119086937108920  0.3081574687303950
  0.6392938161855698  0.9908312435285758  0.4000847854444959
  0.8723775247537127  0.1010793255758351  0.0374507683829550
  0.0017810392334286  0.3257306078902655  0.1261274344167588
  0.2209357877722865  0.7796737763745927  0.3066415516154274
  0.1060179478498629  0.8912047956864205  0.2166991265283013
  0.8697981446364881  0.7762817876377752  0.0390363596978507
  0.8928421307752767  0.7804629417817847  0.3123637802733544
  0.0182752148432263  0.9993247583284091  0.3992726970831768
  0.4532589241330613  0.2321953270587533  0.2141310694624329
  0.6710174968063400  0.9984995328992686  0.1253183618154338
  0.3296316669978575  0.3232436108351903  0.1280980964460885
  0.6542230586520735  0.3312854910863211  0.1279199328267362
  0.6427445304206130  0.3159982460196673  0.4001716404929517
  0.7657995748540727  0.5545600337122553  0.2156613933322157
  0.0272342979146523  0.6853280631507375  0.3998487555385333
  0.7908535916921303  0.8878895023579583  0.2167037085818863
  0.8107351550699025  0.5669843408068777  0.4647508287363012
  0.8186487280238595  0.9065573617942557  0.4656141545362530
  0.1401759421111095  0.8971731341972961  0.4468057934714558
 
  0.00000000E+00  0.00000000E+00  0.00000000E+00
  0.00000000E+00  0.00000000E+00  0.00000000E+00
  0.00000000E+00  0.00000000E+00  0.00000000E+00
  0.00000000E+00  0.00000000E+00  0.00000000E+00
  0.00000000E+00  0.00000000E+00  0.00000000E+00
  0.00000000E+00  0.00000000E+00  0.00000000E+00
  0.00000000E+00  0.00000000E+00  0.00000000E+00
  0.00000000E+00  0.00000000E+00  0.00000000E+00
  0.00000000E+00  0.00000000E+00  0.00000000E+00
  0.00000000E+00  0.00000000E+00  0.00000000E+00
  0.00000000E+00  0.00000000E+00  0.00000000E+00
  0.00000000E+00  0.00000000E+00  0.00000000E+00
  0.00000000E+00  0.00000000E+00  0.00000000E+00
  0.00000000E+00  0.00000000E+00  0.00000000E+00
  0.00000000E+00  0.00000000E+00  0.00000000E+00
  0.00000000E+00  0.00000000E+00  0.00000000E+00
  0.00000000E+00  0.00000000E+00  0.00000000E+00
  0.00000000E+00  0.00000000E+00  0.00000000E+00
  0.00000000E+00  0.00000000E+00  0.00000000E+00
  0.00000000E+00  0.00000000E+00  0.00000000E+00
  0.00000000E+00  0.00000000E+00  0.00000000E+00
  0.00000000E+00  0.00000000E+00  0.00000000E+00
  0.00000000E+00  0.00000000E+00  0.00000000E+00
  0.00000000E+00  0.00000000E+00  0.00000000E+00
  0.00000000E+00  0.00000000E+00  0.00000000E+00
  0.00000000E+00  0.00000000E+00  0.00000000E+00
  0.00000000E+00  0.00000000E+00  0.00000000E+00
  0.00000000E+00  0.00000000E+00  0.00000000E+00
  0.00000000E+00  0.00000000E+00  0.00000000E+00
  0.00000000E+00  0.00000000E+00  0.00000000E+00
  0.00000000E+00  0.00000000E+00  0.00000000E+00
  0.00000000E+00  0.00000000E+00  0.00000000E+00
  0.00000000E+00  0.00000000E+00  0.00000000E+00
  0.00000000E+00  0.00000000E+00  0.00000000E+00
  0.00000000E+00  0.00000000E+00  0.00000000E+00
  0.00000000E+00  0.00000000E+00  0.00000000E+00
  0.00000000E+00  0.00000000E+00  0.00000000E+00
  0.00000000E+00  0.00000000E+00  0.00000000E+00
  0.00000000E+00  0.00000000E+00  0.00000000E+00
  0.00000000E+00  0.00000000E+00  0.00000000E+00
  0.00000000E+00  0.00000000E+00  0.00000000E+00
  0.00000000E+00  0.00000000E+00  0.00000000E+00
  0.00000000E+00  0.00000000E+00  0.00000000E+00
  0.00000000E+00  0.00000000E+00  0.00000000E+00
  0.00000000E+00  0.00000000E+00  0.00000000E+00
  0.00000000E+00  0.00000000E+00  0.00000000E+00
  0.00000000E+00  0.00000000E+00  0.00000000E+00
  0.00000000E+00  0.00000000E+00  0.00000000E+00
  0.00000000E+00  0.00000000E+00  0.00000000E+00
