5L_3x3_(1\1\1)                          
   1.00000000000000     
     8.4506998061999994    0.0000000000000000    0.0000000000000000
    -4.2253499030999997    7.3185207118999998    0.0000000000000000
     0.0000000000000000    0.0000000000000000   24.2000007629000002
   Ir   Pd   Pt   Rh   Ru
     9     8     9     9     9
Direct
  0.5572331814334975  0.1086506999675761  0.0388567126013081
  0.5416333363728835  0.1069218272499206  0.3114273352669351
  0.7788816058443031  0.2319348497888594  0.2164144620931913
  0.0027224392737208  0.3468758380123825  0.3926236282047514
  0.3252090052465857  0.3302802913638790  0.1261137750412410
  0.8783679534315321  0.4458943521772005  0.3049805364052664
  0.9986699955482176  0.6591269740852985  0.1253170512534234
  0.3302759561755814  0.6474724058737279  0.3917251864038141
  0.8914345402560886  0.7797929177507124  0.3060998712291129
  0.0030130515183894  0.0064027957079770  0.3970888223251606
  0.2266702209220731  0.1151848986873432  0.0315928609687542
  0.6522866354481595 -0.0035799542024261  0.3992589720715997
  0.2245392532631113  0.4427142526984721  0.3024631232650246
  0.8909290729270869  0.4440044689177879  0.0327050833199240
  0.1083477872620934  0.8854898319158271  0.2161597587150174
  0.4507072348205872  0.8921482706709216  0.2172643048726705
  0.7734854170972395  0.8864349396225421  0.2163183029797901
  0.0026490132394688  0.0039827200012147  0.1258344304964324
  0.8842404577529582  0.1061894579067842  0.3058977072364111
  0.1059567527358898  0.5501378476196026  0.2157277184360377
  0.9971143393846572  0.6594202852132359  0.3959810879645985
  0.3350172066373261  0.6690165420041200  0.1271856209326769
  0.5576336529932666  0.7838487789584343  0.0348017524688377
  0.6658915152049055  0.6639034652364003  0.1273328874487447
  0.6544302506206882  0.6550306618289369  0.3956598155583927
  0.8884030702133499  0.7731533806132598  0.0354223783211776
  0.3375054010366892  0.0042864272685241  0.1259183752693061
  0.4459389031186951  0.2316104487850249  0.2170332988892795
  0.8848892874324821  0.1203221451877259  0.0377702095013863
  0.3323328125067125  0.3347879932830960  0.3926541653220798
  0.5443441964423913  0.4381822038177544  0.0374809573667735
  0.5578577959142821  0.4391687799956981  0.3052968586205086
  0.6679418742242034  0.3290270999747794  0.1268126145663902
  0.2266523974159472  0.7759989187279436  0.0373016052656380
  0.2345190022759097  0.7999221210839621  0.3119272864810491
  0.2266239939158751  0.1033415944282324  0.3078572048073575
  0.1245904760421432  0.2300917006158037  0.2160532874785209
  0.6765998527927517  0.0209823048818931  0.1249774766799387
  0.9969112630139776  0.3228010218506406  0.1268130764649773
  0.2257604571905009  0.4448050485669341  0.0411818937997380
  0.4478670116309043  0.5426656418303379  0.2164801100317879
  0.6813339224500765  0.3377007319669358  0.3915239089723494
  0.7697932363786337  0.5473213601695474  0.2161706312191179
  0.5544344893968058  0.7797112882965909  0.3069977879087041
 
  0.00000000E+00  0.00000000E+00  0.00000000E+00
  0.00000000E+00  0.00000000E+00  0.00000000E+00
  0.00000000E+00  0.00000000E+00  0.00000000E+00
  0.00000000E+00  0.00000000E+00  0.00000000E+00
  0.00000000E+00  0.00000000E+00  0.00000000E+00
  0.00000000E+00  0.00000000E+00  0.00000000E+00
  0.00000000E+00  0.00000000E+00  0.00000000E+00
  0.00000000E+00  0.00000000E+00  0.00000000E+00
  0.00000000E+00  0.00000000E+00  0.00000000E+00
  0.00000000E+00  0.00000000E+00  0.00000000E+00
  0.00000000E+00  0.00000000E+00  0.00000000E+00
  0.00000000E+00  0.00000000E+00  0.00000000E+00
  0.00000000E+00  0.00000000E+00  0.00000000E+00
  0.00000000E+00  0.00000000E+00  0.00000000E+00
  0.00000000E+00  0.00000000E+00  0.00000000E+00
  0.00000000E+00  0.00000000E+00  0.00000000E+00
  0.00000000E+00  0.00000000E+00  0.00000000E+00
  0.00000000E+00  0.00000000E+00  0.00000000E+00
  0.00000000E+00  0.00000000E+00  0.00000000E+00
  0.00000000E+00  0.00000000E+00  0.00000000E+00
  0.00000000E+00  0.00000000E+00  0.00000000E+00
  0.00000000E+00  0.00000000E+00  0.00000000E+00
  0.00000000E+00  0.00000000E+00  0.00000000E+00
  0.00000000E+00  0.00000000E+00  0.00000000E+00
  0.00000000E+00  0.00000000E+00  0.00000000E+00
  0.00000000E+00  0.00000000E+00  0.00000000E+00
  0.00000000E+00  0.00000000E+00  0.00000000E+00
  0.00000000E+00  0.00000000E+00  0.00000000E+00
  0.00000000E+00  0.00000000E+00  0.00000000E+00
  0.00000000E+00  0.00000000E+00  0.00000000E+00
  0.00000000E+00  0.00000000E+00  0.00000000E+00
  0.00000000E+00  0.00000000E+00  0.00000000E+00
  0.00000000E+00  0.00000000E+00  0.00000000E+00
  0.00000000E+00  0.00000000E+00  0.00000000E+00
  0.00000000E+00  0.00000000E+00  0.00000000E+00
  0.00000000E+00  0.00000000E+00  0.00000000E+00
  0.00000000E+00  0.00000000E+00  0.00000000E+00
  0.00000000E+00  0.00000000E+00  0.00000000E+00
  0.00000000E+00  0.00000000E+00  0.00000000E+00
  0.00000000E+00  0.00000000E+00  0.00000000E+00
  0.00000000E+00  0.00000000E+00  0.00000000E+00
  0.00000000E+00  0.00000000E+00  0.00000000E+00
  0.00000000E+00  0.00000000E+00  0.00000000E+00
  0.00000000E+00  0.00000000E+00  0.00000000E+00
