Amorphous+H                             
   1.00000000000000     
     8.4506998061999994    0.0000000000000000    0.0000000000000000
    -4.2253499030999997    7.3185207118999998    0.0000000000000000
     0.0000000000000000    0.0000000000000000   24.2000007629000002
   Ir   Pd   Pt   Rh   Ru   H 
     9     9     9     9     9     1
Direct
  0.6991013479546074  0.6485473800111718  0.0344569709297747
  0.9078683270842591  0.1175000207205123  0.3294381490087935
  0.4801565070319688  0.5793182417682147  0.4113656150922250
  0.5930404218742443  0.7903149448297810  0.3264426156493522
  0.0255219757596132  0.3536759212234489  0.2388826365785701
  0.2124252403713488  0.1717731713976974  0.2695280064975232
  0.4099058194985276  0.6049458704112050  0.0940845005192884
  0.3144432066236194  0.7495234139781157  0.3890202660861093
  0.0574074531067916  0.6413434724486513  0.3085987686829544
  0.8935026535591264  0.4691745449454394  0.0476674689564689
  0.7096324238455336  0.2997637119704926  0.2969058610086293
  0.8792636254580258  0.8175776658080752  0.2705567626673717
  0.7538440078619000  0.9429151145622696  0.0909941712430526
  0.7924200769142767  0.2394475776185506  0.1468331903987516
  0.3483690927810309  0.6743871945804862  0.2403353678085414
  0.6844784289041114  0.0104061370471441  0.2380492165986417
  0.5648394027296588  0.1233665313585532  0.0486639388836027
  0.1676965801331548  0.8628517742279482  0.2097280978284053
  0.8342654937653619  0.5250505578584961  0.2092631007990939
  0.6458422392521762  0.7083896037253642  0.1798409762025004
  0.2240739072722401  0.4370959267367245  0.3332172755745573
  0.8866687820804455  0.1716381979808068  0.0021465953714383
  0.2276972491143792  0.7929627988091318  0.0545661627751450
  0.4568352082205917  0.9052533836368191  0.1479254982325233
  0.9902111918904385  0.0546733474498397  0.1791112063871249
  0.3867890597915519  0.3229315996445448  0.0310874953712461
  0.0476035581119783  0.9764674884428682  0.0309536400134717
  0.6093655102600324  0.4213741381533431  0.1206302223763944
  0.0979940175977634  0.2817619969717596  0.0908476304024323
  0.4205571745942096  0.2675068560475354  0.3592797250794013
  0.5281590239964005  0.4869799924651338  0.2692460098575102
  0.1196872000213313  0.5664601756711674  0.1466129069397759
  0.2795112749996939  0.0880570338927965  0.1188010333969841
  0.3734200644259517  0.9743184161779999  0.3023082899865754
  0.9169423618292115  0.3863407132182073  0.3866510352627003
  0.6119665773431375  0.0662470123980739  0.3835063607899386
  0.3103323984826020  0.3700707684223592  0.1779456003138330
  0.2168773121279378  0.5050771494276920  0.0064224384543725
  0.8045648230987720  0.8802319376046626  0.4095364617717444
  0.7406645910908211  0.5791583551318046  0.3620554156097399
  0.0304680041935632  0.7214064554784655  0.4165349977796108
  0.9348425755979229  0.7429844321157576  0.1161784574429154
  0.5194942155058706  0.7896136122358844  0.0034914578827966
  0.4812580107518459  0.1956016255564373  0.2078754348802762
  0.0958607436902551  0.9742160709494511  0.3589733636309145
  0.7834807534017314  0.4645876568890961  0.4214095439769207
 
  0.00000000E+00  0.00000000E+00  0.00000000E+00
  0.00000000E+00  0.00000000E+00  0.00000000E+00
  0.00000000E+00  0.00000000E+00  0.00000000E+00
  0.00000000E+00  0.00000000E+00  0.00000000E+00
  0.00000000E+00  0.00000000E+00  0.00000000E+00
  0.00000000E+00  0.00000000E+00  0.00000000E+00
  0.00000000E+00  0.00000000E+00  0.00000000E+00
  0.00000000E+00  0.00000000E+00  0.00000000E+00
  0.00000000E+00  0.00000000E+00  0.00000000E+00
  0.00000000E+00  0.00000000E+00  0.00000000E+00
  0.00000000E+00  0.00000000E+00  0.00000000E+00
  0.00000000E+00  0.00000000E+00  0.00000000E+00
  0.00000000E+00  0.00000000E+00  0.00000000E+00
  0.00000000E+00  0.00000000E+00  0.00000000E+00
  0.00000000E+00  0.00000000E+00  0.00000000E+00
  0.00000000E+00  0.00000000E+00  0.00000000E+00
  0.00000000E+00  0.00000000E+00  0.00000000E+00
  0.00000000E+00  0.00000000E+00  0.00000000E+00
  0.00000000E+00  0.00000000E+00  0.00000000E+00
  0.00000000E+00  0.00000000E+00  0.00000000E+00
  0.00000000E+00  0.00000000E+00  0.00000000E+00
  0.00000000E+00  0.00000000E+00  0.00000000E+00
  0.00000000E+00  0.00000000E+00  0.00000000E+00
  0.00000000E+00  0.00000000E+00  0.00000000E+00
  0.00000000E+00  0.00000000E+00  0.00000000E+00
  0.00000000E+00  0.00000000E+00  0.00000000E+00
  0.00000000E+00  0.00000000E+00  0.00000000E+00
  0.00000000E+00  0.00000000E+00  0.00000000E+00
  0.00000000E+00  0.00000000E+00  0.00000000E+00
  0.00000000E+00  0.00000000E+00  0.00000000E+00
  0.00000000E+00  0.00000000E+00  0.00000000E+00
  0.00000000E+00  0.00000000E+00  0.00000000E+00
  0.00000000E+00  0.00000000E+00  0.00000000E+00
  0.00000000E+00  0.00000000E+00  0.00000000E+00
  0.00000000E+00  0.00000000E+00  0.00000000E+00
  0.00000000E+00  0.00000000E+00  0.00000000E+00
  0.00000000E+00  0.00000000E+00  0.00000000E+00
  0.00000000E+00  0.00000000E+00  0.00000000E+00
  0.00000000E+00  0.00000000E+00  0.00000000E+00
  0.00000000E+00  0.00000000E+00  0.00000000E+00
  0.00000000E+00  0.00000000E+00  0.00000000E+00
  0.00000000E+00  0.00000000E+00  0.00000000E+00
  0.00000000E+00  0.00000000E+00  0.00000000E+00
  0.00000000E+00  0.00000000E+00  0.00000000E+00
  0.00000000E+00  0.00000000E+00  0.00000000E+00
  0.00000000E+00  0.00000000E+00  0.00000000E+00
