total                                   
   1.00000000000000     
     8.4506998061999994    0.0000000000000000    0.0000000000000000
    -4.2253499030999997    7.3185207118999998    0.0000000000000000
     0.0000000000000000    0.0000000000000000   24.2000007629000002
   Ir   Pd   Pt   Rh   Ru   H 
     9     9     9     9     9     1
Direct
  0.6153763431168568  0.7240899625184593  0.1251629513686496
  0.5952540296473683  0.4852849218253433  0.3901079086740209
  0.9042358231552907  0.7246693447291737  0.4097454013033179
  0.1431327864248261  0.7618473321110336  0.0484961754050011
  0.6408584647377020  0.7040678726025275  0.2971172147889046
  0.9381817864261287  0.3869432945567476  0.2025863795250709
  0.7625513387727771  0.0935377241829752  0.1365151142703406
  0.1551658363059507  0.7467298997760803  0.3487795992487149
  0.4157134311894570  0.8776735553404846  0.1150350565119924
  0.9453486232939600  0.1379201992264324  0.3905381841030657
  0.2645937795724043  0.3657067024769725  0.4328522830336240
  0.0974127156556309  0.1942639727843798  0.1832606580283360
  0.9924874772496007  0.9324347643161828  0.1010277943874898
  0.8644948381221736  0.8424349431945412  0.2065642752456676
  0.0808425056904121  0.2702768360907835  0.0520465081324674
  0.7599550886294215  0.6059948111038997  0.0443149558738859
  0.6385837143022266  0.8213186463289093  0.4029477518062791
  0.8292951578472061  0.0857980429362018  0.2724393427481950
  0.7453375178754577  0.9331207517680049  0.0332473118510468
  0.2711356274535558  0.1092974735092306  0.0291302989707570
  0.2018797202973069  0.2571013749651455  0.2928110471671814
  0.6928566309618088  0.2368701911328027  0.3765569472295411
  0.4644378246287404  0.9585980680160981  0.0017520631508279
  0.7121482390651916  0.4854420901107993  0.1620630147864505
  0.3299153779659495  0.1147151768890646  0.3682617240952734
  0.2345689861031399  0.9629911952587037  0.2543784163060776
  0.4390313100690806  0.4856839912766514  0.2154429645003855
  0.4184507115881521  0.3874044226785827  0.0949779895698259
  0.2370200162185098  0.5334758454339892  0.1420533607865614
  0.3341673506838583  0.1019335476987458  0.1544630381152584
  0.3820788041322672  0.6351251598347261  0.0407098093271466
  0.5945618016845826  0.1718773997449957  0.2231918830081425
  0.9327431664422958  0.4523202098923850  0.0912700773278558
  0.8914600557112418  0.6025187900629045  0.2703775072705645
  0.0095782936643246  0.4812213741840121  0.4182083114461499
  0.4920750221623470  0.9244235976417364  0.3188505231167444
  0.0908353221414699  0.7298268481687923  0.1644697092962687
  0.5443894622330621  0.8517415105069025  0.2143520172364466
  0.7919566336012186  0.2482128828342678  0.0045631128249074
  0.0006922916189298  0.4036488690598038  0.3181966715879729
  0.5557702332858304  0.3555763585921403  0.2939244786704540
  0.2275378087819478  0.6372633233707262  0.2483988337169076
  0.9738335361880871  0.9107817763448162  0.3250372106212616
  0.5952879654468369  0.2251752677121989  0.0788507893951650
  0.3357395462206273  0.5746393936457903  0.3473883271869718
  0.4991770576347709  0.5691502265648872  0.4399649829828389
 
  0.00000000E+00  0.00000000E+00  0.00000000E+00
  0.00000000E+00  0.00000000E+00  0.00000000E+00
  0.00000000E+00  0.00000000E+00  0.00000000E+00
  0.00000000E+00  0.00000000E+00  0.00000000E+00
  0.00000000E+00  0.00000000E+00  0.00000000E+00
  0.00000000E+00  0.00000000E+00  0.00000000E+00
  0.00000000E+00  0.00000000E+00  0.00000000E+00
  0.00000000E+00  0.00000000E+00  0.00000000E+00
  0.00000000E+00  0.00000000E+00  0.00000000E+00
  0.00000000E+00  0.00000000E+00  0.00000000E+00
  0.00000000E+00  0.00000000E+00  0.00000000E+00
  0.00000000E+00  0.00000000E+00  0.00000000E+00
  0.00000000E+00  0.00000000E+00  0.00000000E+00
  0.00000000E+00  0.00000000E+00  0.00000000E+00
  0.00000000E+00  0.00000000E+00  0.00000000E+00
  0.00000000E+00  0.00000000E+00  0.00000000E+00
  0.00000000E+00  0.00000000E+00  0.00000000E+00
  0.00000000E+00  0.00000000E+00  0.00000000E+00
  0.00000000E+00  0.00000000E+00  0.00000000E+00
  0.00000000E+00  0.00000000E+00  0.00000000E+00
  0.00000000E+00  0.00000000E+00  0.00000000E+00
  0.00000000E+00  0.00000000E+00  0.00000000E+00
  0.00000000E+00  0.00000000E+00  0.00000000E+00
  0.00000000E+00  0.00000000E+00  0.00000000E+00
  0.00000000E+00  0.00000000E+00  0.00000000E+00
  0.00000000E+00  0.00000000E+00  0.00000000E+00
  0.00000000E+00  0.00000000E+00  0.00000000E+00
  0.00000000E+00  0.00000000E+00  0.00000000E+00
  0.00000000E+00  0.00000000E+00  0.00000000E+00
  0.00000000E+00  0.00000000E+00  0.00000000E+00
  0.00000000E+00  0.00000000E+00  0.00000000E+00
  0.00000000E+00  0.00000000E+00  0.00000000E+00
  0.00000000E+00  0.00000000E+00  0.00000000E+00
  0.00000000E+00  0.00000000E+00  0.00000000E+00
  0.00000000E+00  0.00000000E+00  0.00000000E+00
  0.00000000E+00  0.00000000E+00  0.00000000E+00
  0.00000000E+00  0.00000000E+00  0.00000000E+00
  0.00000000E+00  0.00000000E+00  0.00000000E+00
  0.00000000E+00  0.00000000E+00  0.00000000E+00
  0.00000000E+00  0.00000000E+00  0.00000000E+00
  0.00000000E+00  0.00000000E+00  0.00000000E+00
  0.00000000E+00  0.00000000E+00  0.00000000E+00
  0.00000000E+00  0.00000000E+00  0.00000000E+00
  0.00000000E+00  0.00000000E+00  0.00000000E+00
  0.00000000E+00  0.00000000E+00  0.00000000E+00
  0.00000000E+00  0.00000000E+00  0.00000000E+00
