step                                    
   1.00000000000000     
     8.4506998061999994    0.0000000000000000    0.0000000000000000
    -4.2253499030999997    7.3185207118999998    0.0000000000000000
     0.0000000000000000    0.0000000000000000   24.2000007629000002
   Ir   Pd   Pt   Rh   Ru   H 
     9    10     9     9    11     1
Direct
  0.9958281088674659  0.0040917578986471  0.1271293459884645
  0.1126523852511849  0.2107971885034274  0.2162097869480601
  0.5653481406858543  0.1203290327769189  0.0407891178664615
  0.2434123874064626  0.4542469950067038  0.0409070856670193
  0.5502601811147561  0.4395742179446939  0.0403396638878196
  0.3358020580902865  0.6708384208669412  0.1255710271248793
  0.3193604857384276  0.6767360289346233  0.3964412548276873
  0.5557447023771938  0.7780578743486838  0.0398102479703123
  0.6665165533306897  0.6686652653993408  0.1288285734800395
  0.2208349330369057  0.1159338528144852  0.0351903304927338
  0.2248775661822767  0.1090494155357736  0.3070044543156815
  0.7761794923906590  0.2232542937959087  0.2167240503295721
 -0.0017234553863336  0.3383426103108240  0.4044632125050527
  0.1092009603836372  0.5560031602793106  0.2166377159601622
  0.3207529599843703  0.3234328015181248  0.4044060394038749
  0.8836475378834062  0.4395438698137227  0.0351009900709661
  0.8877709833617521  0.4498407515788082  0.3111279845100510
  0.2277626599286270  0.7786523829605235  0.0351150925497494
  0.7591574396256027  0.2136589543098665  0.4865026804961513
  0.3349924334980698  0.0001576226277332  0.4050655514885496
  0.8897990301314602  0.1062434633196782  0.3112766630042518
  0.2169981626489982  0.4426150108776085  0.3092752481676399
  0.5587897162178943  0.4382898390763325  0.3076016628694626
  0.4427608470131510  0.5492033806153890  0.2158985575372533
  0.9963186482643439  0.6643819831535790  0.1277136120270283
  0.5553537401204669  0.7833087482225433  0.3062723504242864
  0.4507558904665964  0.8957850899474095  0.2148989899082798
  0.6211388441297299  0.6458178248833626  0.3991887693577806
  0.3378071861509929  0.0080889831026997  0.1288318890697399
  0.5568148426956205  0.1125071608723880  0.3080086852442037
  0.6395218254910866  0.9914279294993150  0.4007271937446789
  0.8729422852360387  0.1016186106877341  0.0374443174141402
  0.0021025828917915  0.3261318928954622  0.1262197754202416
  0.2225347851176809  0.7803854745628593  0.3061616679029711
  0.1063917582425988  0.8919725573101326  0.2168688901187985
  0.8702268941207207  0.7769100748264363  0.0390984564331105
  0.8928030016002039  0.7803577134111551  0.3118821008642284
  0.0170856568003481  0.9968150654187997  0.4006088765354262
  0.4532471974358006  0.2324065025516354  0.2143603609208116
  0.6713606040129745  0.9991691901227607  0.1252478005125744
  0.3298444962022295  0.3237007508301428  0.1281701908128623
  0.6544223455901323  0.3320337913927364  0.1280732718017177
  0.6475259584201369  0.3145883664552375  0.3992497963984698
  0.7657111657226633  0.5551311219186789  0.2155806820728825
  0.0259994803411131  0.6870129258691183  0.3986863970573467
  0.7909409439740377  0.8884670693915983  0.2166537539639082
  0.8152799152738713  0.5726404202927599  0.4640252225310704
  0.8169959526136307  0.9009447609382555  0.4664171283949792
  0.2300274993223773  0.1037674173291264  0.4442334866065650
 
  0.00000000E+00  0.00000000E+00  0.00000000E+00
  0.00000000E+00  0.00000000E+00  0.00000000E+00
  0.00000000E+00  0.00000000E+00  0.00000000E+00
  0.00000000E+00  0.00000000E+00  0.00000000E+00
  0.00000000E+00  0.00000000E+00  0.00000000E+00
  0.00000000E+00  0.00000000E+00  0.00000000E+00
  0.00000000E+00  0.00000000E+00  0.00000000E+00
  0.00000000E+00  0.00000000E+00  0.00000000E+00
  0.00000000E+00  0.00000000E+00  0.00000000E+00
  0.00000000E+00  0.00000000E+00  0.00000000E+00
  0.00000000E+00  0.00000000E+00  0.00000000E+00
  0.00000000E+00  0.00000000E+00  0.00000000E+00
  0.00000000E+00  0.00000000E+00  0.00000000E+00
  0.00000000E+00  0.00000000E+00  0.00000000E+00
  0.00000000E+00  0.00000000E+00  0.00000000E+00
  0.00000000E+00  0.00000000E+00  0.00000000E+00
  0.00000000E+00  0.00000000E+00  0.00000000E+00
  0.00000000E+00  0.00000000E+00  0.00000000E+00
  0.00000000E+00  0.00000000E+00  0.00000000E+00
  0.00000000E+00  0.00000000E+00  0.00000000E+00
  0.00000000E+00  0.00000000E+00  0.00000000E+00
  0.00000000E+00  0.00000000E+00  0.00000000E+00
  0.00000000E+00  0.00000000E+00  0.00000000E+00
  0.00000000E+00  0.00000000E+00  0.00000000E+00
  0.00000000E+00  0.00000000E+00  0.00000000E+00
  0.00000000E+00  0.00000000E+00  0.00000000E+00
  0.00000000E+00  0.00000000E+00  0.00000000E+00
  0.00000000E+00  0.00000000E+00  0.00000000E+00
  0.00000000E+00  0.00000000E+00  0.00000000E+00
  0.00000000E+00  0.00000000E+00  0.00000000E+00
  0.00000000E+00  0.00000000E+00  0.00000000E+00
  0.00000000E+00  0.00000000E+00  0.00000000E+00
  0.00000000E+00  0.00000000E+00  0.00000000E+00
  0.00000000E+00  0.00000000E+00  0.00000000E+00
  0.00000000E+00  0.00000000E+00  0.00000000E+00
  0.00000000E+00  0.00000000E+00  0.00000000E+00
  0.00000000E+00  0.00000000E+00  0.00000000E+00
  0.00000000E+00  0.00000000E+00  0.00000000E+00
  0.00000000E+00  0.00000000E+00  0.00000000E+00
  0.00000000E+00  0.00000000E+00  0.00000000E+00
  0.00000000E+00  0.00000000E+00  0.00000000E+00
  0.00000000E+00  0.00000000E+00  0.00000000E+00
  0.00000000E+00  0.00000000E+00  0.00000000E+00
  0.00000000E+00  0.00000000E+00  0.00000000E+00
  0.00000000E+00  0.00000000E+00  0.00000000E+00
  0.00000000E+00  0.00000000E+00  0.00000000E+00
  0.00000000E+00  0.00000000E+00  0.00000000E+00
  0.00000000E+00  0.00000000E+00  0.00000000E+00
  0.00000000E+00  0.00000000E+00  0.00000000E+00
