total                                   
   1.00000000000000     
     8.4506998061999994    0.0000000000000000    0.0000000000000000
    -4.2253499030999997    7.3185207118999998    0.0000000000000000
     0.0000000000000000    0.0000000000000000   24.2000007629000002
   Ir   Pd   Pt   Rh   Ru   H 
     9     9     9     9     9     1
Direct
  0.6079362920966783  0.7229465863849681  0.1250119292528419
  0.5728912997432025  0.4770886148761293  0.3871573665226659
  0.8822748755929487  0.7065456493980583  0.4100543489737357
  0.1359894821896733  0.7613006094624566  0.0485858559458585
  0.6316922349298998  0.7019759883100826  0.2961776121798644
  0.9303752931686489  0.3863966157788641  0.2023010379434209
  0.7553368105211341  0.0926767115726366  0.1361794870892321
  0.1472080194063481  0.7444224791481323  0.3481073463628883
  0.4091411159499961  0.8774120621019469  0.1147923714663828
  0.9348800585324860  0.1366085527658719  0.3893212575691550
  0.2550412752403187  0.3539461039848672  0.4318131563099268
  0.0886816467351152  0.1925524748057483  0.1829718186515262
  0.9857113161792225  0.9323952951657606  0.1009379226886733
  0.8571331112768470  0.8389180384003609  0.2062860737424570
  0.0735715226143277  0.2697366863142909  0.0517236132563745
  0.7530078438794333  0.6059496589739169  0.0442548709805939
  0.6326272946464505  0.8186887658252706  0.4028060709429274
  0.8224486597444463  0.0829669254053167  0.2713932425559429
  0.7380030880241131  0.9324914186200927  0.0331059222553288
  0.2635133221079448  0.1084204447887391  0.0287689755207207
  0.1944564206044367  0.2551447873131178  0.2927076190560385
  0.6842346444842018  0.2353032380035661  0.3766041648149553
  0.4572187314233893  0.9581648947335769  0.0015784899012040
  0.7034919778697296  0.4831109934621358  0.1616505308622878
  0.3228110139520300  0.1105244111897383  0.3671053468826007
  0.2264418427882881  0.9605775861527855  0.2547349521781443
  0.4289811418188413  0.4823825770676877  0.2148880335311659
  0.4105444553576175  0.3862119761783286  0.0946800662314035
  0.2293253455092392  0.5327302231829777  0.1417720690288091
  0.3274270016512491  0.1016146935091327  0.1548175515146764
  0.3749913983824227  0.6346039396136408  0.0404589707545062
  0.5872966026599792  0.1692496653739074  0.2231012489780218
  0.9251328411717309  0.4514329288835353  0.0909513625259665
  0.8847588886050555  0.6009932052290937  0.2710289318889074
  0.0031879890262200  0.4793577190377205  0.4179509231289599
  0.4880845241383938  0.9217389765932624  0.3200364788378696
  0.0847806681271306  0.7299430233937622  0.1641295099402001
  0.5354275504161295  0.8492970024219548  0.2140838549054206
  0.7845245733082600  0.2475810301922360  0.0043635119431122
 -0.0073268340217867  0.4006671622505654  0.3179216875760499
  0.5497297747731515  0.3549923294574698  0.2923454290733335
  0.2197840175895324  0.6357958076888357  0.2483034489958164
  0.9652394717980536  0.9067849127841167  0.3254675690375033
  0.5875247495116432  0.2240512767199584  0.0786373664468800
  0.3276691983017481  0.5703608399870649  0.3480149880388386
  0.8257675131740686  0.8253850994963459  0.4533455897168190
 
  0.00000000E+00  0.00000000E+00  0.00000000E+00
  0.00000000E+00  0.00000000E+00  0.00000000E+00
  0.00000000E+00  0.00000000E+00  0.00000000E+00
  0.00000000E+00  0.00000000E+00  0.00000000E+00
  0.00000000E+00  0.00000000E+00  0.00000000E+00
  0.00000000E+00  0.00000000E+00  0.00000000E+00
  0.00000000E+00  0.00000000E+00  0.00000000E+00
  0.00000000E+00  0.00000000E+00  0.00000000E+00
  0.00000000E+00  0.00000000E+00  0.00000000E+00
  0.00000000E+00  0.00000000E+00  0.00000000E+00
  0.00000000E+00  0.00000000E+00  0.00000000E+00
  0.00000000E+00  0.00000000E+00  0.00000000E+00
  0.00000000E+00  0.00000000E+00  0.00000000E+00
  0.00000000E+00  0.00000000E+00  0.00000000E+00
  0.00000000E+00  0.00000000E+00  0.00000000E+00
  0.00000000E+00  0.00000000E+00  0.00000000E+00
  0.00000000E+00  0.00000000E+00  0.00000000E+00
  0.00000000E+00  0.00000000E+00  0.00000000E+00
  0.00000000E+00  0.00000000E+00  0.00000000E+00
  0.00000000E+00  0.00000000E+00  0.00000000E+00
  0.00000000E+00  0.00000000E+00  0.00000000E+00
  0.00000000E+00  0.00000000E+00  0.00000000E+00
  0.00000000E+00  0.00000000E+00  0.00000000E+00
  0.00000000E+00  0.00000000E+00  0.00000000E+00
  0.00000000E+00  0.00000000E+00  0.00000000E+00
  0.00000000E+00  0.00000000E+00  0.00000000E+00
  0.00000000E+00  0.00000000E+00  0.00000000E+00
  0.00000000E+00  0.00000000E+00  0.00000000E+00
  0.00000000E+00  0.00000000E+00  0.00000000E+00
  0.00000000E+00  0.00000000E+00  0.00000000E+00
  0.00000000E+00  0.00000000E+00  0.00000000E+00
  0.00000000E+00  0.00000000E+00  0.00000000E+00
  0.00000000E+00  0.00000000E+00  0.00000000E+00
  0.00000000E+00  0.00000000E+00  0.00000000E+00
  0.00000000E+00  0.00000000E+00  0.00000000E+00
  0.00000000E+00  0.00000000E+00  0.00000000E+00
  0.00000000E+00  0.00000000E+00  0.00000000E+00
  0.00000000E+00  0.00000000E+00  0.00000000E+00
  0.00000000E+00  0.00000000E+00  0.00000000E+00
  0.00000000E+00  0.00000000E+00  0.00000000E+00
  0.00000000E+00  0.00000000E+00  0.00000000E+00
  0.00000000E+00  0.00000000E+00  0.00000000E+00
  0.00000000E+00  0.00000000E+00  0.00000000E+00
  0.00000000E+00  0.00000000E+00  0.00000000E+00
  0.00000000E+00  0.00000000E+00  0.00000000E+00
  0.00000000E+00  0.00000000E+00  0.00000000E+00
