5L_3x3_(1\1\1)                          
   1.00000000000000     
     8.4506998061999994    0.0000000000000000    0.0000000000000000
    -4.2253499030999997    7.3185207118999998    0.0000000000000000
     0.0000000000000000    0.0000000000000000   24.2000007629000002
   Ir   Pd   Pt   Rh   Ru   H 
     9     9     9     8     9     1
Direct
  0.5566505230171985  0.1076593500998355  0.0395650426649441
  0.5473227524980803  0.1106652244458436  0.3080955571496944
  0.7781409496479673  0.2314452687676237  0.2170169840730295
  0.0039253785024346  0.3573671436009705  0.3932270546350630
  0.3255612400667764  0.3310410531352578  0.1270802925265187
  0.8762736613809445  0.4454106484945315  0.3057524449576144
  0.9966280814162469  0.6569467977938216  0.1270094736253841
  0.3258435801164442  0.6579155120628638  0.3919629360916759
  0.8861620028466886  0.7788535992541000  0.3064557339907646
  0.0117227521181181  0.0182756931160990  0.3970734852607113
  0.2262218186782421  0.1147699571900754  0.0324314675667069
  0.3409063644018595  0.0036213834843898  0.4006575761838685
  0.6706322556029206  0.0033172858198666  0.4017222855286096
  0.2328788512644914  0.4352886626159815  0.3074402753845504
  0.8903893594310555  0.4435443460360728  0.0331853621700841
  0.1049974466614487  0.8811938176799785  0.2161691807690831
  0.4518491631829136  0.8917282187523877  0.2173155837898846
  0.7731035859612668  0.8872788095059769  0.2166563378118790
  0.0024740225477107  0.0055909414066800  0.1264938246776933
  0.8872509585586139  0.1082850842034857  0.3064625376243759
  0.1049466649910019  0.5454630879779774  0.2173818486629563
  0.0012219735424399  0.6715704559554169  0.3972723222301734
  0.3331632179741751  0.6670430272073939  0.1287290946149651
  0.5557924067405610  0.7821843973819200  0.0357547190026201
  0.6640370024010752  0.6631668236729130  0.1283287707419903
  0.6531883844559486  0.6546248101080502  0.3952166200461599
  0.8888893888396570  0.7715696627251524  0.0370282987852753
  0.3369729057131829  0.0042368831898339  0.1261639886763276
  0.4445084930384749  0.2317796448057988  0.2177533684560782
  0.8836012124064098  0.1188058382508436  0.0380109913480467
  0.5449871092440542  0.4373216760299105  0.0382419567476123
  0.5532357733972106  0.4348019741571743  0.3070218679123142
  0.6667011250688210  0.3276143651183098  0.1274520004441571
  0.2250404342277753  0.7731647043197285  0.0382183422724336
  0.2278267258704832  0.7883168186314129  0.3075888314350406
  0.2214564201612129  0.0970699111366829  0.3037196712528445
  0.1257115501008649  0.2329980212641305  0.2171677549154447
  0.6775298692600455  0.0211427306885251  0.1256262813201741
  0.9970539778480346  0.3226075021905118  0.1265176079693510
  0.2261117706674068  0.4466038823063125  0.0416754241680499
  0.4475196892427272  0.5423313201463235  0.2179546810499842
  0.6914443842873363  0.3484851879422040  0.3959815809657620
  0.7686458902164253  0.5452496490894324  0.2171385114598824
  0.5533674528323511  0.7759417166209378  0.3084929271416123
  0.5665992682800342  0.1325416087331692  0.4334304439122660
 
  0.00000000E+00  0.00000000E+00  0.00000000E+00
  0.00000000E+00  0.00000000E+00  0.00000000E+00
  0.00000000E+00  0.00000000E+00  0.00000000E+00
  0.00000000E+00  0.00000000E+00  0.00000000E+00
  0.00000000E+00  0.00000000E+00  0.00000000E+00
  0.00000000E+00  0.00000000E+00  0.00000000E+00
  0.00000000E+00  0.00000000E+00  0.00000000E+00
  0.00000000E+00  0.00000000E+00  0.00000000E+00
  0.00000000E+00  0.00000000E+00  0.00000000E+00
  0.00000000E+00  0.00000000E+00  0.00000000E+00
  0.00000000E+00  0.00000000E+00  0.00000000E+00
  0.00000000E+00  0.00000000E+00  0.00000000E+00
  0.00000000E+00  0.00000000E+00  0.00000000E+00
  0.00000000E+00  0.00000000E+00  0.00000000E+00
  0.00000000E+00  0.00000000E+00  0.00000000E+00
  0.00000000E+00  0.00000000E+00  0.00000000E+00
  0.00000000E+00  0.00000000E+00  0.00000000E+00
  0.00000000E+00  0.00000000E+00  0.00000000E+00
  0.00000000E+00  0.00000000E+00  0.00000000E+00
  0.00000000E+00  0.00000000E+00  0.00000000E+00
  0.00000000E+00  0.00000000E+00  0.00000000E+00
  0.00000000E+00  0.00000000E+00  0.00000000E+00
  0.00000000E+00  0.00000000E+00  0.00000000E+00
  0.00000000E+00  0.00000000E+00  0.00000000E+00
  0.00000000E+00  0.00000000E+00  0.00000000E+00
  0.00000000E+00  0.00000000E+00  0.00000000E+00
  0.00000000E+00  0.00000000E+00  0.00000000E+00
  0.00000000E+00  0.00000000E+00  0.00000000E+00
  0.00000000E+00  0.00000000E+00  0.00000000E+00
  0.00000000E+00  0.00000000E+00  0.00000000E+00
  0.00000000E+00  0.00000000E+00  0.00000000E+00
  0.00000000E+00  0.00000000E+00  0.00000000E+00
  0.00000000E+00  0.00000000E+00  0.00000000E+00
  0.00000000E+00  0.00000000E+00  0.00000000E+00
  0.00000000E+00  0.00000000E+00  0.00000000E+00
  0.00000000E+00  0.00000000E+00  0.00000000E+00
  0.00000000E+00  0.00000000E+00  0.00000000E+00
  0.00000000E+00  0.00000000E+00  0.00000000E+00
  0.00000000E+00  0.00000000E+00  0.00000000E+00
  0.00000000E+00  0.00000000E+00  0.00000000E+00
  0.00000000E+00  0.00000000E+00  0.00000000E+00
  0.00000000E+00  0.00000000E+00  0.00000000E+00
  0.00000000E+00  0.00000000E+00  0.00000000E+00
  0.00000000E+00  0.00000000E+00  0.00000000E+00
  0.00000000E+00  0.00000000E+00  0.00000000E+00
