step                                    
   1.00000000000000     
     8.4506998061999994    0.0000000000000000    0.0000000000000000
    -4.2253499030999997    7.3185207118999998    0.0000000000000000
     0.0000000000000000    0.0000000000000000   24.2000007629000002
   Ir   Pd   Pt   Rh   Ru
    10     9    10     9    10
Direct
  0.9958233952010900  0.0042958156560517  0.1263582181853198
  0.1122045325706631  0.2107570850041473  0.2157126890586156
  0.5651542078419821  0.1201988633889601  0.0399343347499899
  0.2441253707012438  0.4538219001511055  0.0406347724462510
  0.5505108895052757  0.4396935984279281  0.0396961436491930
  0.3352487387266926  0.6718282016669337  0.1249431034163952
  0.3260212127430445  0.6787404399182335  0.3952129520401970
  0.5554302774836800  0.7778361329756780  0.0393140403485325
  0.6672396040215495  0.6681516099896722  0.1277552701298480
  0.8117328933258566  0.5673404450931295  0.4693182179647953
  0.2216528702148462  0.1158797841973742  0.0346826733648612
  0.2211479895651357  0.1078361285331554  0.3068409386244137
  0.7761451981196555  0.2235483704078968  0.2169175928737553
  0.0158158267140987  0.3376786148302872  0.4043494218322232
  0.1087848123021379  0.5561081440945453  0.2164318607056536
  0.3287620659890003  0.3222121766223965  0.4020380417864325
  0.8836570915597557  0.4394218450017424  0.0345595137352157
  0.8857318710897054  0.4454143170603911  0.3123718915420888
  0.2276161410556731  0.7783354279453825  0.0345032536431269
  0.3242200643039767 -0.0054019509009800  0.4007746962890650
  0.8883104178457381  0.1055118471962434  0.3094879690720318
  0.2177976405413621  0.4425139594282581  0.3081629034582436
  0.5598723059120240  0.4430835413084532  0.3074370268292168
  0.4430318433878426  0.5498328686545773  0.2142869804939847
  0.9965799603350377  0.6636098767680825  0.1271840447026664
  0.5544979833728474  0.7838278826149887  0.3053314201201699
  0.4508781789147658  0.8969886781756787  0.2147217575566288
  0.6386292727225819  0.6613841299502864  0.3975335698225384
  0.8121496102820351  0.8802518009534985  0.4820962122981122
  0.3386885304939010  0.0075278217170337  0.1286059998782724
  0.5566639734067664  0.1121806127177996  0.3092300475333945
  0.6543775736133365 -0.0036150035714261  0.4052395379194926
  0.8734134664020443  0.1013636269262014  0.0368839230542942
  0.0026355866822630  0.3265093163977431  0.1258044996086945
  0.2183190797913497  0.7766868935655652  0.3061113441699368
  0.1056214152314180  0.8914674411726494  0.2158290947957350
  0.8698048607551273  0.7765397951460244  0.0384310931482775
  0.8941909215043869  0.7789064809090307  0.3080016385308154
 -0.0010907234321183  0.9820165407610231  0.3967322989744696
  0.4546728971109335  0.2335625344602639  0.2145390866881278
  0.6712550669318436  0.0008417787679645  0.1245258850900460
  0.3295172844458312  0.3215093842313169  0.1278820698030887
  0.6536937105044401  0.3293709342934419  0.1273807650338870
  0.6327209576038131  0.2988316324692842  0.3998914750888338
  0.7650291597226037  0.5552223131909672  0.2151392505339697
  0.0231583069415133  0.6853597932336181  0.3976147524828875
  0.7889563730167739  0.8866491847258526  0.2155150257902488
  0.7818790649244609  0.2644669987715411  0.4774607071359593
 
  0.00000000E+00  0.00000000E+00  0.00000000E+00
  0.00000000E+00  0.00000000E+00  0.00000000E+00
  0.00000000E+00  0.00000000E+00  0.00000000E+00
  0.00000000E+00  0.00000000E+00  0.00000000E+00
  0.00000000E+00  0.00000000E+00  0.00000000E+00
  0.00000000E+00  0.00000000E+00  0.00000000E+00
  0.00000000E+00  0.00000000E+00  0.00000000E+00
  0.00000000E+00  0.00000000E+00  0.00000000E+00
  0.00000000E+00  0.00000000E+00  0.00000000E+00
  0.00000000E+00  0.00000000E+00  0.00000000E+00
  0.00000000E+00  0.00000000E+00  0.00000000E+00
  0.00000000E+00  0.00000000E+00  0.00000000E+00
  0.00000000E+00  0.00000000E+00  0.00000000E+00
  0.00000000E+00  0.00000000E+00  0.00000000E+00
  0.00000000E+00  0.00000000E+00  0.00000000E+00
  0.00000000E+00  0.00000000E+00  0.00000000E+00
  0.00000000E+00  0.00000000E+00  0.00000000E+00
  0.00000000E+00  0.00000000E+00  0.00000000E+00
  0.00000000E+00  0.00000000E+00  0.00000000E+00
  0.00000000E+00  0.00000000E+00  0.00000000E+00
  0.00000000E+00  0.00000000E+00  0.00000000E+00
  0.00000000E+00  0.00000000E+00  0.00000000E+00
  0.00000000E+00  0.00000000E+00  0.00000000E+00
  0.00000000E+00  0.00000000E+00  0.00000000E+00
  0.00000000E+00  0.00000000E+00  0.00000000E+00
  0.00000000E+00  0.00000000E+00  0.00000000E+00
  0.00000000E+00  0.00000000E+00  0.00000000E+00
  0.00000000E+00  0.00000000E+00  0.00000000E+00
  0.00000000E+00  0.00000000E+00  0.00000000E+00
  0.00000000E+00  0.00000000E+00  0.00000000E+00
  0.00000000E+00  0.00000000E+00  0.00000000E+00
  0.00000000E+00  0.00000000E+00  0.00000000E+00
  0.00000000E+00  0.00000000E+00  0.00000000E+00
  0.00000000E+00  0.00000000E+00  0.00000000E+00
  0.00000000E+00  0.00000000E+00  0.00000000E+00
  0.00000000E+00  0.00000000E+00  0.00000000E+00
  0.00000000E+00  0.00000000E+00  0.00000000E+00
  0.00000000E+00  0.00000000E+00  0.00000000E+00
  0.00000000E+00  0.00000000E+00  0.00000000E+00
  0.00000000E+00  0.00000000E+00  0.00000000E+00
  0.00000000E+00  0.00000000E+00  0.00000000E+00
  0.00000000E+00  0.00000000E+00  0.00000000E+00
  0.00000000E+00  0.00000000E+00  0.00000000E+00
  0.00000000E+00  0.00000000E+00  0.00000000E+00
  0.00000000E+00  0.00000000E+00  0.00000000E+00
  0.00000000E+00  0.00000000E+00  0.00000000E+00
  0.00000000E+00  0.00000000E+00  0.00000000E+00
  0.00000000E+00  0.00000000E+00  0.00000000E+00
