5L_3x3_(1\1\1)                          
   1.00000000000000     
     8.4506998061999994    0.0000000000000000    0.0000000000000000
    -4.2253499030999997    7.3185207118999998    0.0000000000000000
     0.0000000000000000    0.0000000000000000   24.2000007629000002
   Ir   Pd   Pt   Rh   Ru   H 
     9     8     9     9     9     1
Direct
  0.9971973215359972  0.0060412639449260  0.1258737677293097
  0.1121211118520834  0.2107921246148393  0.2155116194605037
  0.5648566187361049  0.1201733970167176  0.0394480265543866
  0.2421179252408857  0.4523678506405050  0.0404293717176906
  0.5504046298261227  0.4405908029656452  0.0393255809295288
  0.3361552322804050  0.6720693459291871  0.1250654124859528
  0.3414104009514328  0.6873105968960593  0.3936720746796059
  0.5556635225917014  0.7762421385371483  0.0388087373286488
  0.6661069673062223  0.6686778748416332  0.1274377728596615
  0.2227907568917748  0.1155446897810337  0.0341645666309753
  0.2236593261610574  0.1107135294227278  0.3071433487617519
  0.7756938032991502  0.2223823365105310  0.2164748101164483
  0.1108899084243414  0.5570710904981561  0.2164439965529281
  0.3347853180216033  0.3431829838592105  0.4009202149110564
  0.8841485446515539  0.4398374900938634  0.0342012394993752
  0.8934078638586495  0.4427720019715653  0.3111141078795941
  0.2288025950986773  0.7793719383204850  0.0340264110891687
  0.3318497227183463  0.0005602121001226  0.4030297407752844
  0.8954206502139298  0.1134473566733202  0.3099091712994366
  0.2158924244695151  0.4440482230753425  0.3103636440271815
  0.5597129381109208  0.4420478092068967  0.3053840576545196
  0.4453127834997255  0.5503412984693532  0.2148186425889083
  0.9975058873191719  0.6631832741657199  0.1264918766891020
  0.5609190252571231  0.7834620811014049  0.3033507314222491
  0.4480748850333803  0.8988590907188229  0.2156231859353397
  0.6706559061610101  0.6671467278159018  0.3983507931536936
  0.3393978504677743  0.0075859538053045  0.1284794143997297
  0.5603581740441980  0.1159202637356749  0.3113543661224086
  0.6612350148268893  0.9856736484656522  0.3959421678646698
  0.8756730232180115  0.1028211657643605  0.0367201293290562
  0.0019809228775206  0.3268905849122029  0.1257796071560061
  0.2215869565064650  0.7800620534978537  0.3084304987239619
  0.1046628443378437  0.8908243649358736  0.2145808431235406
  0.8705327107491980  0.7772402878409147  0.0383078767987872
  0.8956617100821473  0.7768775946460741  0.3047358447552566
  0.9909744177482320  0.9694044767477076  0.3940558774793094
  0.4516815617229300  0.2318202554859288  0.2140215410256160
  0.6697435971230060  0.0008277138961968  0.1234826985470028
  0.3312303342918959  0.3245566706218183  0.1273645096581581
  0.6531655595698430  0.3274404740112821  0.1267789516061627
  0.6603731064029538  0.3416029910985227  0.3942975809719645
  0.7659840545572768  0.5540414807092813  0.2136456407404428
  0.0068916164350597  0.6854926532169837  0.3932534365155451
  0.7893416395063634  0.8863094196354733  0.2148866892722259
  0.4451294139126619  0.2160348749635229  0.4381764698442837
 
  0.00000000E+00  0.00000000E+00  0.00000000E+00
  0.00000000E+00  0.00000000E+00  0.00000000E+00
  0.00000000E+00  0.00000000E+00  0.00000000E+00
  0.00000000E+00  0.00000000E+00  0.00000000E+00
  0.00000000E+00  0.00000000E+00  0.00000000E+00
  0.00000000E+00  0.00000000E+00  0.00000000E+00
  0.00000000E+00  0.00000000E+00  0.00000000E+00
  0.00000000E+00  0.00000000E+00  0.00000000E+00
  0.00000000E+00  0.00000000E+00  0.00000000E+00
  0.00000000E+00  0.00000000E+00  0.00000000E+00
  0.00000000E+00  0.00000000E+00  0.00000000E+00
  0.00000000E+00  0.00000000E+00  0.00000000E+00
  0.00000000E+00  0.00000000E+00  0.00000000E+00
  0.00000000E+00  0.00000000E+00  0.00000000E+00
  0.00000000E+00  0.00000000E+00  0.00000000E+00
  0.00000000E+00  0.00000000E+00  0.00000000E+00
  0.00000000E+00  0.00000000E+00  0.00000000E+00
  0.00000000E+00  0.00000000E+00  0.00000000E+00
  0.00000000E+00  0.00000000E+00  0.00000000E+00
  0.00000000E+00  0.00000000E+00  0.00000000E+00
  0.00000000E+00  0.00000000E+00  0.00000000E+00
  0.00000000E+00  0.00000000E+00  0.00000000E+00
  0.00000000E+00  0.00000000E+00  0.00000000E+00
  0.00000000E+00  0.00000000E+00  0.00000000E+00
  0.00000000E+00  0.00000000E+00  0.00000000E+00
  0.00000000E+00  0.00000000E+00  0.00000000E+00
  0.00000000E+00  0.00000000E+00  0.00000000E+00
  0.00000000E+00  0.00000000E+00  0.00000000E+00
  0.00000000E+00  0.00000000E+00  0.00000000E+00
  0.00000000E+00  0.00000000E+00  0.00000000E+00
  0.00000000E+00  0.00000000E+00  0.00000000E+00
  0.00000000E+00  0.00000000E+00  0.00000000E+00
  0.00000000E+00  0.00000000E+00  0.00000000E+00
  0.00000000E+00  0.00000000E+00  0.00000000E+00
  0.00000000E+00  0.00000000E+00  0.00000000E+00
  0.00000000E+00  0.00000000E+00  0.00000000E+00
  0.00000000E+00  0.00000000E+00  0.00000000E+00
  0.00000000E+00  0.00000000E+00  0.00000000E+00
  0.00000000E+00  0.00000000E+00  0.00000000E+00
  0.00000000E+00  0.00000000E+00  0.00000000E+00
  0.00000000E+00  0.00000000E+00  0.00000000E+00
  0.00000000E+00  0.00000000E+00  0.00000000E+00
  0.00000000E+00  0.00000000E+00  0.00000000E+00
  0.00000000E+00  0.00000000E+00  0.00000000E+00
  0.00000000E+00  0.00000000E+00  0.00000000E+00
