5L_3x3_(1\1\1)                          
   1.00000000000000     
     8.4506998061999994    0.0000000000000000    0.0000000000000000
    -4.2253499030999997    7.3185207118999998    0.0000000000000000
     0.0000000000000000    0.0000000000000000   24.2000007629000002
   Ir   Pd   Pt   Rh   Ru   H 
     9     9     8     9     9     1
Direct
  0.5576549818764948  0.1092076973749297  0.0398795758873867
  0.5434641730963496  0.1042249510622551  0.3087506561504349
  0.7767515383258147  0.2324333720980986  0.2178388804645480
  0.0108106187463085  0.3676578563521529  0.3933681562508069
  0.3261992475289702  0.3331116263486850  0.1267712295671621
  0.8842970797129029  0.4581982687236857  0.3082535057316113
  0.9993365515134842  0.6598551129741479  0.1257001466718054
  0.3331121746739149  0.6551569230780406  0.3918143729999772
  0.8926020188293828  0.7779944934146980  0.3083424280575899
  0.0001467068916976  0.0125583351124579  0.3971140950482116
  0.2271084077941321  0.1166759094153047  0.0318622149804277
  0.3381999689238046  0.0107079682243842  0.4000814755596912
  0.6556787281778665  0.9928090680588694  0.4001881066863088
  0.2264857204240140  0.4446458896939660  0.3033632977660018
  0.8900487132544882  0.4445344680310838  0.0330368278778417
  0.1069199050559128  0.8843704472673076  0.2161070854856847
  0.4483704982848744  0.8909375656507104  0.2175181724515594
  0.7767237665435808  0.8900530464921461  0.2166232818426642
  0.0049708457530046  0.0074989377578294  0.1261019530136534
  0.8849267159022060  0.1110016320101150  0.3061166548958009
  0.1036940686126833  0.5476721442656272  0.2161917721270988
  0.3344029195688350  0.6688177985377350  0.1280318970909853
  0.5579216536118619  0.7853218472136683  0.0357396803056937
  0.6681149129663343  0.6660903637765170  0.1278356510103786
  0.6528205417561305  0.6574036354732690  0.3942030007973907
  0.8886836703986080  0.7743294289514565  0.0360637070105837
  0.3369167017905870  0.0054052987867967  0.1259990791027602
  0.4433851915432871  0.2318010126500144  0.2178236805517582
  0.8823944742703412  0.1197538958339323  0.0382638282198770
  0.3312630025927673  0.3349723011565421  0.3933281559691909
  0.5450395071409142  0.4394096826850350  0.0380657952912867
  0.5612510312415235  0.4402779755222253  0.3060039643075084
  0.6685096177633739  0.3309417677392899  0.1277905957153689
  0.2279634162921182  0.7773158000711511  0.0378166302323478
  0.2136901369053287  0.7837251085825867  0.3110715334460237
  0.2183348480709757  0.0998121032357401  0.3060684216847440
  0.1260425578936807  0.2333762663289920  0.2166363263244750
  0.6773285892491894  0.0225818569581593  0.1269992521300260
  0.9978669830233380  0.3254788920158096  0.1262077489811372
  0.2259655348653861  0.4455831761501048  0.0415752125640172
  0.4533950660852367  0.5478341515795480  0.2169078722338755
  0.6811066971362673  0.3377486277615632  0.3921419301698356
  0.7677986948608376  0.5456899524062595  0.2167844176018463
  0.5551399212137936  0.7786487716501526  0.3061484604760742
  0.8768501516466739  0.3687729279921031  0.4444265637903487
 
  0.00000000E+00  0.00000000E+00  0.00000000E+00
  0.00000000E+00  0.00000000E+00  0.00000000E+00
  0.00000000E+00  0.00000000E+00  0.00000000E+00
  0.00000000E+00  0.00000000E+00  0.00000000E+00
  0.00000000E+00  0.00000000E+00  0.00000000E+00
  0.00000000E+00  0.00000000E+00  0.00000000E+00
  0.00000000E+00  0.00000000E+00  0.00000000E+00
  0.00000000E+00  0.00000000E+00  0.00000000E+00
  0.00000000E+00  0.00000000E+00  0.00000000E+00
  0.00000000E+00  0.00000000E+00  0.00000000E+00
  0.00000000E+00  0.00000000E+00  0.00000000E+00
  0.00000000E+00  0.00000000E+00  0.00000000E+00
  0.00000000E+00  0.00000000E+00  0.00000000E+00
  0.00000000E+00  0.00000000E+00  0.00000000E+00
  0.00000000E+00  0.00000000E+00  0.00000000E+00
  0.00000000E+00  0.00000000E+00  0.00000000E+00
  0.00000000E+00  0.00000000E+00  0.00000000E+00
  0.00000000E+00  0.00000000E+00  0.00000000E+00
  0.00000000E+00  0.00000000E+00  0.00000000E+00
  0.00000000E+00  0.00000000E+00  0.00000000E+00
  0.00000000E+00  0.00000000E+00  0.00000000E+00
  0.00000000E+00  0.00000000E+00  0.00000000E+00
  0.00000000E+00  0.00000000E+00  0.00000000E+00
  0.00000000E+00  0.00000000E+00  0.00000000E+00
  0.00000000E+00  0.00000000E+00  0.00000000E+00
  0.00000000E+00  0.00000000E+00  0.00000000E+00
  0.00000000E+00  0.00000000E+00  0.00000000E+00
  0.00000000E+00  0.00000000E+00  0.00000000E+00
  0.00000000E+00  0.00000000E+00  0.00000000E+00
  0.00000000E+00  0.00000000E+00  0.00000000E+00
  0.00000000E+00  0.00000000E+00  0.00000000E+00
  0.00000000E+00  0.00000000E+00  0.00000000E+00
  0.00000000E+00  0.00000000E+00  0.00000000E+00
  0.00000000E+00  0.00000000E+00  0.00000000E+00
  0.00000000E+00  0.00000000E+00  0.00000000E+00
  0.00000000E+00  0.00000000E+00  0.00000000E+00
  0.00000000E+00  0.00000000E+00  0.00000000E+00
  0.00000000E+00  0.00000000E+00  0.00000000E+00
  0.00000000E+00  0.00000000E+00  0.00000000E+00
  0.00000000E+00  0.00000000E+00  0.00000000E+00
  0.00000000E+00  0.00000000E+00  0.00000000E+00
  0.00000000E+00  0.00000000E+00  0.00000000E+00
  0.00000000E+00  0.00000000E+00  0.00000000E+00
  0.00000000E+00  0.00000000E+00  0.00000000E+00
  0.00000000E+00  0.00000000E+00  0.00000000E+00
