5L_3x3_(1\1\1)                          
   1.00000000000000     
     8.4506998061999994    0.0000000000000000    0.0000000000000000
    -4.2253499030999997    7.3185207118999998    0.0000000000000000
     0.0000000000000000    0.0000000000000000   24.2000007629000002
   Ir   Pd   Pt   Rh   Ru   H 
     8     9     9     9     9     1
Direct
  0.5556210631051511  0.1071924937154728  0.0394727552962923
  0.5525054425938798  0.1133003149886957  0.3086999625333318
  0.7764679797106452  0.2297756322106085  0.2171728402475367
  0.3236199291499372  0.3316347419464477  0.1273371562198749
  0.8750783719506925  0.4406765267786858  0.3060763588105126
  0.9978253648254455  0.6575628691557009  0.1258449658564623
  0.3474092092693129  0.6708381736295974  0.3918756819264179
  0.8920779640113283  0.7772137041970388  0.3063398534836013
  0.0063639944434477  0.9987828655833972  0.3966711353017799
  0.2260080406374465  0.1144927526079020  0.0322085292466915
  0.3361991815953783 -0.0021048010395437  0.4020816526168143
  0.6644016063898929  0.0025182467806659  0.3988242532534962
  0.2129823884056109  0.4392946123806702  0.3076971637741167
  0.8894028559503814  0.4430186786105298  0.0331739461230937
  0.1093840880592487  0.8855708979742228  0.2161558772732882
  0.4519845247291202  0.8922230223546215  0.2174814370936921
  0.7759209156959717  0.8869964020060414  0.2167373179597611
  0.0037345375805150  0.0064107186359518  0.1265599602758100
  0.8869213413828564  0.1105738092826447  0.3070348362986511
  0.1036059595128014  0.5478135977467229  0.2166664124179753
  0.0014527714978921  0.6436680829984887  0.3957225171540546
  0.3323015355501517  0.6680600674226365  0.1280582074528634
  0.5565475730990841  0.7812970973372713  0.0360026445158214
  0.6640505350607839  0.6617288419489190  0.1288510221710568
  0.6655033676864112  0.6686698248228896  0.3966737049395086
  0.8871614903402936  0.7726390791153386  0.0369983332528977
  0.3384130232385317  0.0061478206675789  0.1266849840019890
  0.4446090977390263  0.2335316115948902  0.2175459886645839
  0.8832216302088867  0.1185478229202804  0.0379656605760388
  0.3491399283241035  0.3446972129022374  0.3948834691471128
  0.5440695526837007  0.4377885770862538  0.0387787458595903
  0.5568303381506819  0.4447321282144499  0.3056595333357741
  0.6689507672869830  0.3289971890637343  0.1276146183432472
  0.2271465359485363  0.7777070085509313  0.0380413161081019
  0.2286403695691740  0.7895816992790803  0.3089301480927450
  0.2229455563028968  0.1066849476793497  0.3061775830403062
  0.1248649856921360  0.2323230011215771  0.2176876714771896
  0.6772547740350617  0.0212395392068688  0.1254652393992858
  0.9963392847493168  0.3231082553582297  0.1267441066110118
  0.2266379141243952  0.4454992044125298  0.0417431477939936
  0.4475127289974055  0.5458901151645629  0.2184426762917415
  0.6652679820747657  0.3446662492014178  0.3929941117744062
  0.7678672191519532  0.5471710130774586  0.2174632793253461
  0.5581596155645460  0.7766721925690109  0.3061437073692088
  0.4300879075267201  0.2229568037699224  0.4353106988817491
 
  0.00000000E+00  0.00000000E+00  0.00000000E+00
  0.00000000E+00  0.00000000E+00  0.00000000E+00
  0.00000000E+00  0.00000000E+00  0.00000000E+00
  0.00000000E+00  0.00000000E+00  0.00000000E+00
  0.00000000E+00  0.00000000E+00  0.00000000E+00
  0.00000000E+00  0.00000000E+00  0.00000000E+00
  0.00000000E+00  0.00000000E+00  0.00000000E+00
  0.00000000E+00  0.00000000E+00  0.00000000E+00
  0.00000000E+00  0.00000000E+00  0.00000000E+00
  0.00000000E+00  0.00000000E+00  0.00000000E+00
  0.00000000E+00  0.00000000E+00  0.00000000E+00
  0.00000000E+00  0.00000000E+00  0.00000000E+00
  0.00000000E+00  0.00000000E+00  0.00000000E+00
  0.00000000E+00  0.00000000E+00  0.00000000E+00
  0.00000000E+00  0.00000000E+00  0.00000000E+00
  0.00000000E+00  0.00000000E+00  0.00000000E+00
  0.00000000E+00  0.00000000E+00  0.00000000E+00
  0.00000000E+00  0.00000000E+00  0.00000000E+00
  0.00000000E+00  0.00000000E+00  0.00000000E+00
  0.00000000E+00  0.00000000E+00  0.00000000E+00
  0.00000000E+00  0.00000000E+00  0.00000000E+00
  0.00000000E+00  0.00000000E+00  0.00000000E+00
  0.00000000E+00  0.00000000E+00  0.00000000E+00
  0.00000000E+00  0.00000000E+00  0.00000000E+00
  0.00000000E+00  0.00000000E+00  0.00000000E+00
  0.00000000E+00  0.00000000E+00  0.00000000E+00
  0.00000000E+00  0.00000000E+00  0.00000000E+00
  0.00000000E+00  0.00000000E+00  0.00000000E+00
  0.00000000E+00  0.00000000E+00  0.00000000E+00
  0.00000000E+00  0.00000000E+00  0.00000000E+00
  0.00000000E+00  0.00000000E+00  0.00000000E+00
  0.00000000E+00  0.00000000E+00  0.00000000E+00
  0.00000000E+00  0.00000000E+00  0.00000000E+00
  0.00000000E+00  0.00000000E+00  0.00000000E+00
  0.00000000E+00  0.00000000E+00  0.00000000E+00
  0.00000000E+00  0.00000000E+00  0.00000000E+00
  0.00000000E+00  0.00000000E+00  0.00000000E+00
  0.00000000E+00  0.00000000E+00  0.00000000E+00
  0.00000000E+00  0.00000000E+00  0.00000000E+00
  0.00000000E+00  0.00000000E+00  0.00000000E+00
  0.00000000E+00  0.00000000E+00  0.00000000E+00
  0.00000000E+00  0.00000000E+00  0.00000000E+00
  0.00000000E+00  0.00000000E+00  0.00000000E+00
  0.00000000E+00  0.00000000E+00  0.00000000E+00
  0.00000000E+00  0.00000000E+00  0.00000000E+00
