5L_3x3_(1\1\1)                          
   1.00000000000000     
     8.4506998061999994    0.0000000000000000    0.0000000000000000
    -4.2253499030999997    7.3185207118999998    0.0000000000000000
     0.0000000000000000    0.0000000000000000   24.2000007629000002
   Ir   Pd   Pt   Rh   Ru   H 
     9     9     9     8     9     1
Direct
  0.9951438274923226  0.0045509009606343  0.1263549254543609
  0.1135332440841037  0.2129494418758572  0.2154104590543764
  0.5653273483859332  0.1205732099459240  0.0398188542250700
  0.2455398019370054  0.4542455757714928  0.0408620273651960
  0.5506949891675749  0.4392347126758998  0.0398091695673074
  0.3376451658976855  0.6740249214949697  0.1250653129998877
  0.3105988205488439  0.6607567652537537  0.3944748313454289
  0.5555513356995431  0.7792702487806860  0.0388083731766053
  0.6666174596960441  0.6702207549579462  0.1274545933510547
  0.2222731484295979  0.1167062681092653  0.0354009389801259
  0.2249124731591983  0.1113190995909741  0.3061801524989737
  0.7773948909196320  0.2218893714992432  0.2163645447552430
  0.9913622937136413  0.3382057667631697  0.4025963618527463
  0.1109082780855291  0.5597952347634367  0.2156502063322440
  0.3344799215819672  0.3402238444177988  0.4006441208732378
  0.8838694048865543  0.4400349619039750  0.0341449041539350
  0.8860984858919557  0.4465972873242330  0.3078599959625985
  0.2291813888859065  0.7789760853710456  0.0343151439028775
  0.3411934977062723  0.0047140189771578  0.3988227024411543
  0.8858434928644436  0.1024867847453185  0.3118294566479168
  0.2147010258183114  0.4404042086110878  0.3066270407537682
  0.5577051072320982  0.4436834138414509  0.3047592461675103
  0.4455608536653458  0.5533304332509731  0.2146963655135272
  0.9973873269215803  0.6648908852950655  0.1262414152420492
  0.5582188258102062  0.7877604384181024  0.3109370705978213
  0.4509151443422596  0.8968698314648126  0.2170671313014187
  0.6781327831800557  0.6591785776617579  0.3971869752087631
  0.3421813210375139  0.0072932708517962  0.1292300039476968
  0.5644061658542794  0.1125885498035946  0.3121243877644165
  0.8762062927311158  0.1027751975226963  0.0370991710170606
  0.0033829425646019  0.3281474988283408  0.1253233625271102
  0.2233080059270293  0.7823426224125274  0.3076682691929438
  0.1048665204747364  0.8919298636071301  0.2147966958506873
  0.8696582593630328  0.7768363076406685  0.0380497741545587
  0.8943287713037666  0.7812997408930932  0.3057767509987508
  0.0077068297759037  0.9715861927673568  0.3949112439626202
  0.4555956431371412  0.2329377894697026  0.2147585590037429
  0.6712367345994796  0.0007980592157718  0.1243639319350122
  0.3325046154714004  0.3229145880679963  0.1287594236014130
  0.6547510884804590  0.3286618475092078  0.1271609510529051
  0.6528957598321120  0.3313465126953183  0.3953595562089960
  0.7666862879984562  0.5557583756538004  0.2138983549159422
  0.0175713729168093  0.6838142107755046  0.3940844213787964
  0.7891544804563918  0.8873862156523433  0.2155066868121329
  0.7643504790254910  0.2312552228780567  0.4289045889281480
 
  0.00000000E+00  0.00000000E+00  0.00000000E+00
  0.00000000E+00  0.00000000E+00  0.00000000E+00
  0.00000000E+00  0.00000000E+00  0.00000000E+00
  0.00000000E+00  0.00000000E+00  0.00000000E+00
  0.00000000E+00  0.00000000E+00  0.00000000E+00
  0.00000000E+00  0.00000000E+00  0.00000000E+00
  0.00000000E+00  0.00000000E+00  0.00000000E+00
  0.00000000E+00  0.00000000E+00  0.00000000E+00
  0.00000000E+00  0.00000000E+00  0.00000000E+00
  0.00000000E+00  0.00000000E+00  0.00000000E+00
  0.00000000E+00  0.00000000E+00  0.00000000E+00
  0.00000000E+00  0.00000000E+00  0.00000000E+00
  0.00000000E+00  0.00000000E+00  0.00000000E+00
  0.00000000E+00  0.00000000E+00  0.00000000E+00
  0.00000000E+00  0.00000000E+00  0.00000000E+00
  0.00000000E+00  0.00000000E+00  0.00000000E+00
  0.00000000E+00  0.00000000E+00  0.00000000E+00
  0.00000000E+00  0.00000000E+00  0.00000000E+00
  0.00000000E+00  0.00000000E+00  0.00000000E+00
  0.00000000E+00  0.00000000E+00  0.00000000E+00
  0.00000000E+00  0.00000000E+00  0.00000000E+00
  0.00000000E+00  0.00000000E+00  0.00000000E+00
  0.00000000E+00  0.00000000E+00  0.00000000E+00
  0.00000000E+00  0.00000000E+00  0.00000000E+00
  0.00000000E+00  0.00000000E+00  0.00000000E+00
  0.00000000E+00  0.00000000E+00  0.00000000E+00
  0.00000000E+00  0.00000000E+00  0.00000000E+00
  0.00000000E+00  0.00000000E+00  0.00000000E+00
  0.00000000E+00  0.00000000E+00  0.00000000E+00
  0.00000000E+00  0.00000000E+00  0.00000000E+00
  0.00000000E+00  0.00000000E+00  0.00000000E+00
  0.00000000E+00  0.00000000E+00  0.00000000E+00
  0.00000000E+00  0.00000000E+00  0.00000000E+00
  0.00000000E+00  0.00000000E+00  0.00000000E+00
  0.00000000E+00  0.00000000E+00  0.00000000E+00
  0.00000000E+00  0.00000000E+00  0.00000000E+00
  0.00000000E+00  0.00000000E+00  0.00000000E+00
  0.00000000E+00  0.00000000E+00  0.00000000E+00
  0.00000000E+00  0.00000000E+00  0.00000000E+00
  0.00000000E+00  0.00000000E+00  0.00000000E+00
  0.00000000E+00  0.00000000E+00  0.00000000E+00
  0.00000000E+00  0.00000000E+00  0.00000000E+00
  0.00000000E+00  0.00000000E+00  0.00000000E+00
  0.00000000E+00  0.00000000E+00  0.00000000E+00
  0.00000000E+00  0.00000000E+00  0.00000000E+00
