5L_3x3_(1\1\1)                          
   1.00000000000000     
     8.4506998061999994    0.0000000000000000    0.0000000000000000
    -4.2253499030999997    7.3185207118999998    0.0000000000000000
     0.0000000000000000    0.0000000000000000   24.2000007629000002
   Ir   Pd   Pt   Rh   Ru   H 
     8     9     9     9     9     1
Direct
  0.5559964499053084  0.1066483214293894  0.0393986453249851
  0.5521209506654062  0.1123659278773890  0.3090494009667755
  0.7754801004928968  0.2291968463860390  0.2173065257162748
  0.3237025016657037  0.3315131822315079  0.1272506458546755
  0.8739351706392172  0.4407117699111552  0.3061246146667865
  0.9979517115479672  0.6566800258381672  0.1257274895793438
  0.3473112649975615  0.6695253373423893  0.3916749471771476
  0.8933159732974237  0.7771759588588152  0.3060719247610211
  0.0065576795258984  0.9964106894875338  0.3966425300425553
  0.2261986039379275  0.1150077789607782  0.0320911549855454
  0.3376587384216230  0.0008843614600969  0.4012229644607225
  0.6632584101362182  0.0004010915791598  0.3990516663277268
  0.2131675827447788  0.4376214736196265  0.3076545972177724
  0.8891599507048666  0.4426417689425396  0.0331184392811940
  0.1091583468589429  0.8846537631522423  0.2158610517279010
  0.4516552402736080  0.8919997536676095  0.2173857432691617
  0.7759294381167841  0.8874411200881654  0.2163373620831603
  0.0039343348655368  0.0063622679746206  0.1263360949137954
  0.8863942271878891  0.1091275318710370  0.3070367523423619
  0.1029737220317356  0.5467743897167097  0.2170681828226589
  0.0070686354841933  0.6391447072762886  0.3970655842831914
  0.3320239801464272  0.6675840364212431  0.1283199649893153
  0.5561155347754493  0.7812088326004631  0.0358575073194220
  0.6643737943222975  0.6620373864509197  0.1286772493383840
  0.6625062298542503  0.6653265563583998  0.3959535368631147
  0.8872826795184396  0.7721677409521295  0.0369089529337610
  0.3378978040201925  0.0055986044297524  0.1263612332793208
  0.4442888835257344  0.2327033369729750  0.2174700511963863
  0.8827507417103867  0.1183262364990809  0.0379789567982457
  0.3515423949929359  0.3366498916054040  0.3938928313748817
  0.5441893394712264  0.4383123863740053  0.0386598004311684
  0.5569847600818617  0.4459057687649795  0.3048899978868340
  0.6687582649269153  0.3285144168150248  0.1275276580405308
  0.2269432512565137  0.7766690500699759  0.0379959935559400
  0.2249781210893953  0.7864872927894221  0.3091151733297752
  0.2222793575475964  0.1046054519251362  0.3062291233679251
  0.1248884217255314  0.2315209473396210  0.2175945225752137
  0.6771652285996138  0.0205608860929684  0.1255846069783531
  0.9963097160603140  0.3230435568155278  0.1268088106573873
  0.2266714627314409  0.4455766518651930  0.0417645987451112
  0.4472391934853658  0.5452267954114657  0.2181598874316527
  0.6577560008305395  0.3370682077700377  0.3936834248657451
  0.7675780173618485  0.5466528966969941  0.2173827332451633
  0.5574701783872106  0.7757018980745315  0.3062897313373374
  0.8651488026795280  0.4561737492654733  0.4381125472430978
 
  0.00000000E+00  0.00000000E+00  0.00000000E+00
  0.00000000E+00  0.00000000E+00  0.00000000E+00
  0.00000000E+00  0.00000000E+00  0.00000000E+00
  0.00000000E+00  0.00000000E+00  0.00000000E+00
  0.00000000E+00  0.00000000E+00  0.00000000E+00
  0.00000000E+00  0.00000000E+00  0.00000000E+00
  0.00000000E+00  0.00000000E+00  0.00000000E+00
  0.00000000E+00  0.00000000E+00  0.00000000E+00
  0.00000000E+00  0.00000000E+00  0.00000000E+00
  0.00000000E+00  0.00000000E+00  0.00000000E+00
  0.00000000E+00  0.00000000E+00  0.00000000E+00
  0.00000000E+00  0.00000000E+00  0.00000000E+00
  0.00000000E+00  0.00000000E+00  0.00000000E+00
  0.00000000E+00  0.00000000E+00  0.00000000E+00
  0.00000000E+00  0.00000000E+00  0.00000000E+00
  0.00000000E+00  0.00000000E+00  0.00000000E+00
  0.00000000E+00  0.00000000E+00  0.00000000E+00
  0.00000000E+00  0.00000000E+00  0.00000000E+00
  0.00000000E+00  0.00000000E+00  0.00000000E+00
  0.00000000E+00  0.00000000E+00  0.00000000E+00
  0.00000000E+00  0.00000000E+00  0.00000000E+00
  0.00000000E+00  0.00000000E+00  0.00000000E+00
  0.00000000E+00  0.00000000E+00  0.00000000E+00
  0.00000000E+00  0.00000000E+00  0.00000000E+00
  0.00000000E+00  0.00000000E+00  0.00000000E+00
  0.00000000E+00  0.00000000E+00  0.00000000E+00
  0.00000000E+00  0.00000000E+00  0.00000000E+00
  0.00000000E+00  0.00000000E+00  0.00000000E+00
  0.00000000E+00  0.00000000E+00  0.00000000E+00
  0.00000000E+00  0.00000000E+00  0.00000000E+00
  0.00000000E+00  0.00000000E+00  0.00000000E+00
  0.00000000E+00  0.00000000E+00  0.00000000E+00
  0.00000000E+00  0.00000000E+00  0.00000000E+00
  0.00000000E+00  0.00000000E+00  0.00000000E+00
  0.00000000E+00  0.00000000E+00  0.00000000E+00
  0.00000000E+00  0.00000000E+00  0.00000000E+00
  0.00000000E+00  0.00000000E+00  0.00000000E+00
  0.00000000E+00  0.00000000E+00  0.00000000E+00
  0.00000000E+00  0.00000000E+00  0.00000000E+00
  0.00000000E+00  0.00000000E+00  0.00000000E+00
  0.00000000E+00  0.00000000E+00  0.00000000E+00
  0.00000000E+00  0.00000000E+00  0.00000000E+00
  0.00000000E+00  0.00000000E+00  0.00000000E+00
  0.00000000E+00  0.00000000E+00  0.00000000E+00
  0.00000000E+00  0.00000000E+00  0.00000000E+00
