fRu3Pd1Pd2                              
   1.00000000000000     
     8.4506998061999994    0.0000000000000000    0.0000000000000000
    -4.2253499030999997    7.3185207118999998    0.0000000000000000
     0.0000000000000000    0.0000000000000000   24.2000007629000002
   Ir   Pd   Pt   Rh   Ru   H 
     9     9     9     9     9     1
Direct
  0.9966047689001357  0.0047771191941045  0.1261033880603937
  0.1115342196321323  0.2097828726526079  0.2155636748157469
  0.5652140334328861  0.1205358713801695  0.0396789261121313
  0.2427826970542966  0.4526064837303839  0.0404069049342366
  0.5502621605035450  0.4394547021455223  0.0392624408508989
  0.3369955613816856  0.6712636126059437  0.1250961269621779
  0.3266296725675552  0.6779568511239832  0.3950968674308040
  0.5556034998666680  0.7775074423113284  0.0386313899474727
  0.6649803188651885  0.6685055599917461  0.1275267755915824
  0.2221750164264140  0.1155963763953994  0.0344730995124493
  0.2229681880604994  0.1092583800678781  0.3072265162862018
  0.7750540894483168  0.2221008821579313  0.2158999552139433
  0.9933805857417429  0.3341055733729584  0.4045411483392435
  0.1105958288863705  0.5579833883667505  0.2159955298341957
  0.3379759443078864  0.3381769998487432  0.4030110883977745
  0.8842313753235435  0.4399923882752580  0.0342475082273527
  0.8898157367093031  0.4466585566304413  0.3086696773471286
  0.2283680258105473  0.7788933981252339  0.0343434635209774
  0.3354742677763895  0.0020034367525568  0.4006682757395027
  0.8902112373132383  0.1083040824929721  0.3082553686372424
  0.2195097334029801  0.4434631984143025  0.3079839871592180
  0.5591137371112096  0.4400411267173348  0.3063574761177495
  0.4457092796248057  0.5503308939423847  0.2153020189003110
  0.9967669037099911  0.6637622855934637  0.1264185538776702
  0.5575673850363112  0.7795765458733354  0.3055406634026438
  0.4486783506629709  0.8969712413120028  0.2159770220165286
  0.6757598211773127  0.6620978221412838  0.3983315794957483
  0.3403525535101494  0.0076314159045371  0.1287610911823549
  0.5567307132042997  0.1120239502824001  0.3103142412338933
  0.6624439395918228  0.9910646545717872  0.3973455570426689
  0.8755887987787032  0.1023569911207235  0.0368343102914558
  0.0031354994164765  0.3272992824893864  0.1255943898040358
  0.2206865477400987  0.7803612287070325  0.3078595624905484
  0.1041995733728181  0.8901573272902945  0.2150441610943581
  0.8701204661760810  0.7766307775236770  0.0381773240216981
  0.8952581826434971  0.7765592694288669  0.3055489657724108
  0.9878058287261841  0.9758021791825429  0.3960422966434852
  0.4518357496362330  0.2318385615538919  0.2145188063438077
  0.6693428487857190 -0.0001490742857447  0.1236389944775260
  0.3322163963708969  0.3252427455108133  0.1275977387788437
  0.6528177768296382  0.3288679386567411  0.1270948523403556
  0.6601466715436015  0.3271836501198798  0.3945432240446161
  0.7665173978113541  0.5549378049163299  0.2137007727675547
  0.0144782667238168  0.6853218520403637  0.3936799953727971
  0.7908740610523760  0.8883419722623372  0.2154180951680259
  0.0997759693522956  0.2009599751081120  0.4314962033982376
 
  0.00000000E+00  0.00000000E+00  0.00000000E+00
  0.00000000E+00  0.00000000E+00  0.00000000E+00
  0.00000000E+00  0.00000000E+00  0.00000000E+00
  0.00000000E+00  0.00000000E+00  0.00000000E+00
  0.00000000E+00  0.00000000E+00  0.00000000E+00
  0.00000000E+00  0.00000000E+00  0.00000000E+00
  0.00000000E+00  0.00000000E+00  0.00000000E+00
  0.00000000E+00  0.00000000E+00  0.00000000E+00
  0.00000000E+00  0.00000000E+00  0.00000000E+00
  0.00000000E+00  0.00000000E+00  0.00000000E+00
  0.00000000E+00  0.00000000E+00  0.00000000E+00
  0.00000000E+00  0.00000000E+00  0.00000000E+00
  0.00000000E+00  0.00000000E+00  0.00000000E+00
  0.00000000E+00  0.00000000E+00  0.00000000E+00
  0.00000000E+00  0.00000000E+00  0.00000000E+00
  0.00000000E+00  0.00000000E+00  0.00000000E+00
  0.00000000E+00  0.00000000E+00  0.00000000E+00
  0.00000000E+00  0.00000000E+00  0.00000000E+00
  0.00000000E+00  0.00000000E+00  0.00000000E+00
  0.00000000E+00  0.00000000E+00  0.00000000E+00
  0.00000000E+00  0.00000000E+00  0.00000000E+00
  0.00000000E+00  0.00000000E+00  0.00000000E+00
  0.00000000E+00  0.00000000E+00  0.00000000E+00
  0.00000000E+00  0.00000000E+00  0.00000000E+00
  0.00000000E+00  0.00000000E+00  0.00000000E+00
  0.00000000E+00  0.00000000E+00  0.00000000E+00
  0.00000000E+00  0.00000000E+00  0.00000000E+00
  0.00000000E+00  0.00000000E+00  0.00000000E+00
  0.00000000E+00  0.00000000E+00  0.00000000E+00
  0.00000000E+00  0.00000000E+00  0.00000000E+00
  0.00000000E+00  0.00000000E+00  0.00000000E+00
  0.00000000E+00  0.00000000E+00  0.00000000E+00
  0.00000000E+00  0.00000000E+00  0.00000000E+00
  0.00000000E+00  0.00000000E+00  0.00000000E+00
  0.00000000E+00  0.00000000E+00  0.00000000E+00
  0.00000000E+00  0.00000000E+00  0.00000000E+00
  0.00000000E+00  0.00000000E+00  0.00000000E+00
  0.00000000E+00  0.00000000E+00  0.00000000E+00
  0.00000000E+00  0.00000000E+00  0.00000000E+00
  0.00000000E+00  0.00000000E+00  0.00000000E+00
  0.00000000E+00  0.00000000E+00  0.00000000E+00
  0.00000000E+00  0.00000000E+00  0.00000000E+00
  0.00000000E+00  0.00000000E+00  0.00000000E+00
  0.00000000E+00  0.00000000E+00  0.00000000E+00
  0.00000000E+00  0.00000000E+00  0.00000000E+00
  0.00000000E+00  0.00000000E+00  0.00000000E+00
