5L_3x3_(1\1\1)                          
   1.00000000000000     
     8.4506998061999994    0.0000000000000000    0.0000000000000000
    -4.2253499030999997    7.3185207118999998    0.0000000000000000
     0.0000000000000000    0.0000000000000000   24.2000007629000002
   Ir   Pd   Pt   Rh   Ru   H 
     9     9     9     9     9     1
Direct
  0.5563984332145318  0.1082952046982571  0.0394260436315724
  0.5469935896681394  0.1080179245520912  0.3091849690020337
  0.7768936106634213  0.2314475615485840  0.2170651152574505
  0.0065363784508349  0.3508375466262347  0.3947184759796692
  0.3256776470613426  0.3313721578970369  0.1267520266527521
  0.8752122145467455  0.4434684398318426  0.3068640935835764
  0.9976600649596109  0.6576157996562209  0.1257479502524758
  0.3312938713536682  0.6555327107899797  0.3933242106233523
  0.8871985096755531  0.7777294379465621  0.3063943999129964
  0.0032493995158096  0.0053635612462680  0.3988120825281723
  0.2262839270647105  0.1148692281462781  0.0321200638122707
  0.3348864701853551  0.0050717070249303  0.4011942704846962
  0.6593889079173045 -0.0043196598894186  0.4016142169229096
  0.2252444302690378  0.4436362928479231  0.3039180614495063
  0.8896407792341609  0.4430679362167108  0.0329216835180169
  0.1063062832591660  0.8845428298288346  0.2161118748974534
  0.4509744568410956  0.8919076989066512  0.2173186135482422
  0.7737053664213289  0.8874273111805941  0.2166093801349407
  0.0029022357579538  0.0056227649596400  0.1262319535643933
  0.8855261767889908  0.1066461358587477  0.3063481082699153
  0.1027322361613912  0.5470868904982280  0.2165640512279957
 -0.0016361718522520  0.6632253063773458  0.3974905067842056
  0.3334012804268275  0.6676918291906183  0.1281184200322407
  0.5563856120920249  0.7827509387093944  0.0355660602503982
  0.6659650605186853  0.6636999848450419  0.1278927062161800
  0.6538575484936610  0.6567320358500968  0.3965386484796991
  0.8883682779773013  0.7731394990798041  0.0361878879827048
  0.3371876733003336  0.0044263240928564  0.1263246091349313
  0.4434212910719787  0.2311545038401743  0.2178059862659062
  0.8830215848336616  0.1184637833833555  0.0378774535874551
  0.3315775586268125  0.3341362302855085  0.3947011755100254
  0.5445476406413259  0.4373151852532277  0.0380415300605108
  0.5560317010806927  0.4395628720484896  0.3060209438149247
  0.6678819253846762  0.3291910066506034  0.1276390108179475
  0.2264588588741719  0.7755139390864321  0.0379219653691357
  0.2276997478894613  0.7903266174103967  0.3081395868759637
  0.2224444048697872  0.1028831953786530  0.3059653844224211
  0.1253969546889643  0.2320725029091851  0.2166227522821976
  0.6768432096666926  0.0215233667589403  0.1256467367600312
  0.9967731354040014  0.3234328453354408  0.1262220016865309
  0.2259501816320611  0.4457163239405885  0.0416096441405543
  0.4493681561760783  0.5447645127109630  0.2169504132995141
  0.6733996190295359  0.3390051819346610  0.3942539566025419
  0.7677639726570377  0.5458647117981712  0.2172118213914112
  0.5552430700048779  0.7785821634236574  0.3072393296877461
  0.8119730685014421  0.2477859303341597  0.4366497122904686
 
  0.00000000E+00  0.00000000E+00  0.00000000E+00
  0.00000000E+00  0.00000000E+00  0.00000000E+00
  0.00000000E+00  0.00000000E+00  0.00000000E+00
  0.00000000E+00  0.00000000E+00  0.00000000E+00
  0.00000000E+00  0.00000000E+00  0.00000000E+00
  0.00000000E+00  0.00000000E+00  0.00000000E+00
  0.00000000E+00  0.00000000E+00  0.00000000E+00
  0.00000000E+00  0.00000000E+00  0.00000000E+00
  0.00000000E+00  0.00000000E+00  0.00000000E+00
  0.00000000E+00  0.00000000E+00  0.00000000E+00
  0.00000000E+00  0.00000000E+00  0.00000000E+00
  0.00000000E+00  0.00000000E+00  0.00000000E+00
  0.00000000E+00  0.00000000E+00  0.00000000E+00
  0.00000000E+00  0.00000000E+00  0.00000000E+00
  0.00000000E+00  0.00000000E+00  0.00000000E+00
  0.00000000E+00  0.00000000E+00  0.00000000E+00
  0.00000000E+00  0.00000000E+00  0.00000000E+00
  0.00000000E+00  0.00000000E+00  0.00000000E+00
  0.00000000E+00  0.00000000E+00  0.00000000E+00
  0.00000000E+00  0.00000000E+00  0.00000000E+00
  0.00000000E+00  0.00000000E+00  0.00000000E+00
  0.00000000E+00  0.00000000E+00  0.00000000E+00
  0.00000000E+00  0.00000000E+00  0.00000000E+00
  0.00000000E+00  0.00000000E+00  0.00000000E+00
  0.00000000E+00  0.00000000E+00  0.00000000E+00
  0.00000000E+00  0.00000000E+00  0.00000000E+00
  0.00000000E+00  0.00000000E+00  0.00000000E+00
  0.00000000E+00  0.00000000E+00  0.00000000E+00
  0.00000000E+00  0.00000000E+00  0.00000000E+00
  0.00000000E+00  0.00000000E+00  0.00000000E+00
  0.00000000E+00  0.00000000E+00  0.00000000E+00
  0.00000000E+00  0.00000000E+00  0.00000000E+00
  0.00000000E+00  0.00000000E+00  0.00000000E+00
  0.00000000E+00  0.00000000E+00  0.00000000E+00
  0.00000000E+00  0.00000000E+00  0.00000000E+00
  0.00000000E+00  0.00000000E+00  0.00000000E+00
  0.00000000E+00  0.00000000E+00  0.00000000E+00
  0.00000000E+00  0.00000000E+00  0.00000000E+00
  0.00000000E+00  0.00000000E+00  0.00000000E+00
  0.00000000E+00  0.00000000E+00  0.00000000E+00
  0.00000000E+00  0.00000000E+00  0.00000000E+00
  0.00000000E+00  0.00000000E+00  0.00000000E+00
  0.00000000E+00  0.00000000E+00  0.00000000E+00
  0.00000000E+00  0.00000000E+00  0.00000000E+00
  0.00000000E+00  0.00000000E+00  0.00000000E+00
  0.00000000E+00  0.00000000E+00  0.00000000E+00
