5L_3x3_(1\1\1)                          
   1.00000000000000     
     8.4506998061999994    0.0000000000000000    0.0000000000000000
    -4.2253499030999997    7.3185207118999998    0.0000000000000000
     0.0000000000000000    0.0000000000000000   24.2000007629000002
   Ir   Pd   Pt   Rh   Ru   H 
     9     8     9     9     9     1
Direct
  0.9964369002395086  0.0056722558958359  0.1259237371376839
  0.1120015604792363  0.2106280656087166  0.2156400392886303
  0.5647064472448228  0.1202123912089683  0.0395016561767448
  0.2424304679021331  0.4528611192257522  0.0404842708039528
  0.5503359805708984  0.4405949550323851  0.0394314202626578
  0.3360082739767206  0.6724204621564657  0.1252082970064720
  0.3394126154020658  0.6832583693915092  0.3935397884760904
  0.5554029797085113  0.7767629941085898  0.0388592163335059
  0.6664989571448828  0.6689605398616290  0.1274763500193948
  0.2229352327117245  0.1159672493777318  0.0342830019450875
  0.2235068696234807  0.1098219490482518  0.3071305512949155
  0.7760152177306748  0.2220831372755983  0.2164161748588093
  0.1097329448035518  0.5569191970751478  0.2167102629113364
  0.3367837560443329  0.3389181743093850  0.4000271625143427
  0.8839459990857351  0.4398805497668278  0.0342490017469382
  0.8915743916099820  0.4405145820864074  0.3114957763570449
  0.2285052918197992  0.7790674608537107  0.0341250632281565
  0.3302267140845955  0.0009819019422281  0.4028557695457712
  0.8937958563219800  0.1114207501798016  0.3104011403285926
  0.2149056489151032  0.4431865590954212  0.3101069380261205
  0.5585269948332391  0.4421501160649831  0.3053252669806969
  0.4444066390993714  0.5497413865705464  0.2144210264729490
  0.9974916440187140  0.6631952294385232  0.1265900750106803
  0.5599311602971676  0.7831109313270854  0.3035555993082552
  0.4477996951457979  0.8983983559098714  0.2157320358617016
  0.6693955270208125  0.6675553905500444  0.3982690082502636
  0.3394744603093396  0.0076189352138665  0.1286169039031750
  0.5594232951656504  0.1156121154991510  0.3104059619862498
  0.6581885158548707  0.9861238187339844  0.3974480295358142
  0.8758991564405714  0.1029858970030249  0.0368337092548466
  0.0022314802255105  0.3273035184239441  0.1259255851675062
  0.2205165016573831  0.7789273262087134  0.3085641753846033
  0.1045747125078739  0.8914534069058555  0.2147268696992353
  0.8702653561630472  0.7771182571469606  0.0383371944137440
  0.8943576779397826  0.7759430754234022  0.3050416632427182
  0.9958037056538689  0.9699829428088577  0.3943243524924538
  0.4526831830165445  0.2322888925719177  0.2143630483875749
  0.6694011804890264  0.0007636189205340  0.1235744294367465
  0.3301625962049039  0.3233293941831603  0.1273664297152740
  0.6529528186316502  0.3275378483119742  0.1268558136948171
  0.6640865065307759  0.3444779554819652  0.3953583033233714
  0.7657920453989694  0.5542048766580391  0.2138302774511804
  0.0064132737588185  0.6826952917124087  0.3933698935901250
  0.7887207898875218  0.8857614920697935  0.2150431388692359
  0.5804794602202032  0.1270717455227754  0.4339326369709623
 
  0.00000000E+00  0.00000000E+00  0.00000000E+00
  0.00000000E+00  0.00000000E+00  0.00000000E+00
  0.00000000E+00  0.00000000E+00  0.00000000E+00
  0.00000000E+00  0.00000000E+00  0.00000000E+00
  0.00000000E+00  0.00000000E+00  0.00000000E+00
  0.00000000E+00  0.00000000E+00  0.00000000E+00
  0.00000000E+00  0.00000000E+00  0.00000000E+00
  0.00000000E+00  0.00000000E+00  0.00000000E+00
  0.00000000E+00  0.00000000E+00  0.00000000E+00
  0.00000000E+00  0.00000000E+00  0.00000000E+00
  0.00000000E+00  0.00000000E+00  0.00000000E+00
  0.00000000E+00  0.00000000E+00  0.00000000E+00
  0.00000000E+00  0.00000000E+00  0.00000000E+00
  0.00000000E+00  0.00000000E+00  0.00000000E+00
  0.00000000E+00  0.00000000E+00  0.00000000E+00
  0.00000000E+00  0.00000000E+00  0.00000000E+00
  0.00000000E+00  0.00000000E+00  0.00000000E+00
  0.00000000E+00  0.00000000E+00  0.00000000E+00
  0.00000000E+00  0.00000000E+00  0.00000000E+00
  0.00000000E+00  0.00000000E+00  0.00000000E+00
  0.00000000E+00  0.00000000E+00  0.00000000E+00
  0.00000000E+00  0.00000000E+00  0.00000000E+00
  0.00000000E+00  0.00000000E+00  0.00000000E+00
  0.00000000E+00  0.00000000E+00  0.00000000E+00
  0.00000000E+00  0.00000000E+00  0.00000000E+00
  0.00000000E+00  0.00000000E+00  0.00000000E+00
  0.00000000E+00  0.00000000E+00  0.00000000E+00
  0.00000000E+00  0.00000000E+00  0.00000000E+00
  0.00000000E+00  0.00000000E+00  0.00000000E+00
  0.00000000E+00  0.00000000E+00  0.00000000E+00
  0.00000000E+00  0.00000000E+00  0.00000000E+00
  0.00000000E+00  0.00000000E+00  0.00000000E+00
  0.00000000E+00  0.00000000E+00  0.00000000E+00
  0.00000000E+00  0.00000000E+00  0.00000000E+00
  0.00000000E+00  0.00000000E+00  0.00000000E+00
  0.00000000E+00  0.00000000E+00  0.00000000E+00
  0.00000000E+00  0.00000000E+00  0.00000000E+00
  0.00000000E+00  0.00000000E+00  0.00000000E+00
  0.00000000E+00  0.00000000E+00  0.00000000E+00
  0.00000000E+00  0.00000000E+00  0.00000000E+00
  0.00000000E+00  0.00000000E+00  0.00000000E+00
  0.00000000E+00  0.00000000E+00  0.00000000E+00
  0.00000000E+00  0.00000000E+00  0.00000000E+00
  0.00000000E+00  0.00000000E+00  0.00000000E+00
  0.00000000E+00  0.00000000E+00  0.00000000E+00
