step                                    
   1.00000000000000     
     8.4506998061999994    0.0000000000000000    0.0000000000000000
    -4.2253499030999997    7.3185207118999998    0.0000000000000000
     0.0000000000000000    0.0000000000000000   24.2000007629000002
   Ir   Pd   Pt   Rh   Ru   H 
    10     9    10    10     9     1
Direct
  0.9949883749555377  0.0038527768431547  0.1270307686778571
  0.1128488644403223  0.2109221509153501  0.2162096419705254
  0.5648227162708166  0.1209418936799278  0.0402800581187947
  0.2429918638891949  0.4531130295649566  0.0411127081241631
  0.5500312003069505  0.4395062415304139  0.0401687300205667
  0.3358922795989305  0.6715223228561678  0.1254014121925342
  0.3210810640821121  0.6741104078790016  0.3956655138276725
  0.5559452380471452  0.7768901666076586  0.0394132569789641
  0.6670095638831626  0.6694850528021904  0.1280022840097784
  0.8101639703328785  0.9234252164304125  0.4742296693313178
  0.2214693305141758  0.1158298962098603  0.0353533132160039
  0.2224542059743413  0.1089353678476207  0.3071714782716083
  0.7752735728807709  0.2207098217071883  0.2167728206059658
  0.0093084060606425  0.3437119942266075  0.4027179835071259
  0.1099860083404914  0.5568858748112971  0.2163520440568660
  0.3301852929140273  0.3276816987581346  0.4034755265499684
  0.8837801674419478  0.4402230266421284  0.0350073025907411
  0.8876241248545601  0.4454269429238823  0.3081991185714443
  0.2282013980805035  0.7789684582557117  0.0350001510136107
  0.3249692557138755 -0.0055750337504517  0.4024968905937175
  0.8884418347764765  0.1035526636116143  0.3111963686685015
  0.2189221466390079  0.4430177195387522  0.3082014402276665
  0.5603027500240763  0.4402278461641075  0.3075408060132485
  0.4438817028470464  0.5496072976344669  0.2151420050253698
  0.9968462252188669  0.6645081793384424  0.1274696153480481
  0.5561612988486379  0.7831510392792236  0.3073907350510836
  0.4515138516552086  0.8948919135489883  0.2160277811237062
  0.6428939647839593  0.6565287282515200  0.3993478374646909
  0.7998283903914165  0.5730047071889592  0.4807147204581899
  0.3396685076101726  0.0069177625676141  0.1293649312766585
  0.5554179355014356  0.1142587583453871  0.3099874052232113
  0.6352999476424595  0.9934901004391927  0.4014424344270678
  0.8734224915486923  0.1024597509617547  0.0373306799877973
  0.0018634980107772  0.3261382428260725  0.1262902055225345
  0.2169361844988875  0.7779751879916691  0.3076942552668362
  0.1066448213150315  0.8917112455338408  0.2163472814753705
  0.8703877542243833  0.7765203785723787  0.0387550836502429
  0.8949869679823831  0.7785585986483592  0.3076474212765190
  0.7768706197108034  0.2165492362788863  0.4810909108411267
  0.0020407658662950  0.9762739411286151  0.3998030433724262
  0.4531418566244411  0.2331123677543956  0.2146828537763514
  0.6698777225685760 -0.0003499176589926  0.1244601896071576
  0.3292943213070020  0.3218228489874213  0.1282142726119903
  0.6533721369697029  0.3287141337187526  0.1279656955818824
  0.6699777267547169  0.3320504630339104  0.3993319418096772
  0.7647255397261897  0.5540544566917778  0.2147088937021093
  0.0070281333203386  0.6687089998159622  0.3974327022824357
  0.7893882664213112  0.8851802915291692  0.2165956347395974
  0.2217155086293028  0.1037253685365401  0.4398021849592744
 
  0.00000000E+00  0.00000000E+00  0.00000000E+00
  0.00000000E+00  0.00000000E+00  0.00000000E+00
  0.00000000E+00  0.00000000E+00  0.00000000E+00
  0.00000000E+00  0.00000000E+00  0.00000000E+00
  0.00000000E+00  0.00000000E+00  0.00000000E+00
  0.00000000E+00  0.00000000E+00  0.00000000E+00
  0.00000000E+00  0.00000000E+00  0.00000000E+00
  0.00000000E+00  0.00000000E+00  0.00000000E+00
  0.00000000E+00  0.00000000E+00  0.00000000E+00
  0.00000000E+00  0.00000000E+00  0.00000000E+00
  0.00000000E+00  0.00000000E+00  0.00000000E+00
  0.00000000E+00  0.00000000E+00  0.00000000E+00
  0.00000000E+00  0.00000000E+00  0.00000000E+00
  0.00000000E+00  0.00000000E+00  0.00000000E+00
  0.00000000E+00  0.00000000E+00  0.00000000E+00
  0.00000000E+00  0.00000000E+00  0.00000000E+00
  0.00000000E+00  0.00000000E+00  0.00000000E+00
  0.00000000E+00  0.00000000E+00  0.00000000E+00
  0.00000000E+00  0.00000000E+00  0.00000000E+00
  0.00000000E+00  0.00000000E+00  0.00000000E+00
  0.00000000E+00  0.00000000E+00  0.00000000E+00
  0.00000000E+00  0.00000000E+00  0.00000000E+00
  0.00000000E+00  0.00000000E+00  0.00000000E+00
  0.00000000E+00  0.00000000E+00  0.00000000E+00
  0.00000000E+00  0.00000000E+00  0.00000000E+00
  0.00000000E+00  0.00000000E+00  0.00000000E+00
  0.00000000E+00  0.00000000E+00  0.00000000E+00
  0.00000000E+00  0.00000000E+00  0.00000000E+00
  0.00000000E+00  0.00000000E+00  0.00000000E+00
  0.00000000E+00  0.00000000E+00  0.00000000E+00
  0.00000000E+00  0.00000000E+00  0.00000000E+00
  0.00000000E+00  0.00000000E+00  0.00000000E+00
  0.00000000E+00  0.00000000E+00  0.00000000E+00
  0.00000000E+00  0.00000000E+00  0.00000000E+00
  0.00000000E+00  0.00000000E+00  0.00000000E+00
  0.00000000E+00  0.00000000E+00  0.00000000E+00
  0.00000000E+00  0.00000000E+00  0.00000000E+00
  0.00000000E+00  0.00000000E+00  0.00000000E+00
  0.00000000E+00  0.00000000E+00  0.00000000E+00
  0.00000000E+00  0.00000000E+00  0.00000000E+00
  0.00000000E+00  0.00000000E+00  0.00000000E+00
  0.00000000E+00  0.00000000E+00  0.00000000E+00
  0.00000000E+00  0.00000000E+00  0.00000000E+00
  0.00000000E+00  0.00000000E+00  0.00000000E+00
  0.00000000E+00  0.00000000E+00  0.00000000E+00
  0.00000000E+00  0.00000000E+00  0.00000000E+00
  0.00000000E+00  0.00000000E+00  0.00000000E+00
  0.00000000E+00  0.00000000E+00  0.00000000E+00
  0.00000000E+00  0.00000000E+00  0.00000000E+00
