5L_3x3_(1\1\1)                          
   1.00000000000000     
     8.4506998061999994    0.0000000000000000    0.0000000000000000
    -4.2253499030999997    7.3185207118999998    0.0000000000000000
     0.0000000000000000    0.0000000000000000   24.2000007629000002
   Ir   Pd   Pt   Rh   Ru   H 
     9     9     9     9     9     1
Direct
  0.5568061311528060  0.1085624153437001  0.0394050110860322
  0.5492980602022038  0.1092789188860299  0.3082521847912677
  0.7776381332216519  0.2303537245943547  0.2169529641377204
  0.0072289112704618  0.3495472486681449  0.3937669038874982
  0.3259794048857055  0.3313477565980255  0.1268303794124511
  0.8744142440071525  0.4409975605169243  0.3065967287705813
  0.9972274640233179  0.6577556663158918  0.1257896707943059
  0.3316637131775130  0.6554579931713967  0.3929791322231487
  0.8881186244933458  0.7773793988929899  0.3065094273544455
  0.0055259808689993  0.0068726215151563  0.3988880657190733
  0.2263015102874606  0.1148556221290972  0.0320315735599196
  0.3381816706143898  0.0047366840183998  0.4025982753639207
  0.6678076311731482  0.0009528651357511  0.4022279502392380
  0.2258194023867533  0.4443320521723571  0.3037317726934816
  0.8899889840101788  0.4433126266430050  0.0329464008002367
  0.1065690899975044  0.8847474098868443  0.2161569828995577
  0.4510484705747566  0.8915080643082286  0.2172118217323163
  0.7739035698530830  0.8871265451867258  0.2166194922067580
  0.0028089581986567  0.0052709535685450  0.1261675178091732
  0.8859724865872890  0.1053896746900180  0.3065232084636298
  0.1023787082868006  0.5473967727051398  0.2165428406558616
  0.0016947473430081  0.6617762212519548  0.3972400660068547
  0.3331105514468058  0.6673361274200629  0.1282833015213328
  0.5563732263031301  0.7827088231111815  0.0356748701520949
  0.6655639719860196  0.6633099191656808  0.1280508172673501
  0.6553752787947423  0.6580796036295259  0.3964856904923217
  0.8885668747380221  0.7731079634681860  0.0361057078005012
  0.3374452699567526  0.0046763042266346  0.1262739460815215
  0.4432971169278470  0.2311754037958752  0.2178872256231041
  0.8835460948203884  0.1188105120647604  0.0378012290587441
  0.3318887151501271  0.3374691577936805  0.3947623384216216
  0.5445062113716745  0.4369499502784358  0.0381267212625448
  0.5563389143307292  0.4375329932502799  0.3063837795471955
  0.6681266523382688  0.3289567839562337  0.1276901422546999
  0.2265325699064216  0.7754216928797444  0.0380207512447849
  0.2298036150129266  0.7929149957819311  0.3082478716956061
  0.2235827311392672  0.1030135597952839  0.3061485810877682
  0.1249907244028509  0.2318517184850360  0.2164729663325120
  0.6773803947152855  0.0212427842223660  0.1254218443585199
  0.9972229606665517  0.3231991558518054  0.1262759488431992
  0.2267667173171460  0.4462856562085775  0.0414822836501262
  0.4479362573283742  0.5432527752737344  0.2173858074991510
  0.6793656174345397  0.3451198901419737  0.3957417900269621
  0.7681441251719955  0.5464068430789232  0.2172292243599692
  0.5563129869021510  0.7805861539767074  0.3074775510348904
  0.5705168052217865  0.1333527199446577  0.4344811287760434
 
  0.00000000E+00  0.00000000E+00  0.00000000E+00
  0.00000000E+00  0.00000000E+00  0.00000000E+00
  0.00000000E+00  0.00000000E+00  0.00000000E+00
  0.00000000E+00  0.00000000E+00  0.00000000E+00
  0.00000000E+00  0.00000000E+00  0.00000000E+00
  0.00000000E+00  0.00000000E+00  0.00000000E+00
  0.00000000E+00  0.00000000E+00  0.00000000E+00
  0.00000000E+00  0.00000000E+00  0.00000000E+00
  0.00000000E+00  0.00000000E+00  0.00000000E+00
  0.00000000E+00  0.00000000E+00  0.00000000E+00
  0.00000000E+00  0.00000000E+00  0.00000000E+00
  0.00000000E+00  0.00000000E+00  0.00000000E+00
  0.00000000E+00  0.00000000E+00  0.00000000E+00
  0.00000000E+00  0.00000000E+00  0.00000000E+00
  0.00000000E+00  0.00000000E+00  0.00000000E+00
  0.00000000E+00  0.00000000E+00  0.00000000E+00
  0.00000000E+00  0.00000000E+00  0.00000000E+00
  0.00000000E+00  0.00000000E+00  0.00000000E+00
  0.00000000E+00  0.00000000E+00  0.00000000E+00
  0.00000000E+00  0.00000000E+00  0.00000000E+00
  0.00000000E+00  0.00000000E+00  0.00000000E+00
  0.00000000E+00  0.00000000E+00  0.00000000E+00
  0.00000000E+00  0.00000000E+00  0.00000000E+00
  0.00000000E+00  0.00000000E+00  0.00000000E+00
  0.00000000E+00  0.00000000E+00  0.00000000E+00
  0.00000000E+00  0.00000000E+00  0.00000000E+00
  0.00000000E+00  0.00000000E+00  0.00000000E+00
  0.00000000E+00  0.00000000E+00  0.00000000E+00
  0.00000000E+00  0.00000000E+00  0.00000000E+00
  0.00000000E+00  0.00000000E+00  0.00000000E+00
  0.00000000E+00  0.00000000E+00  0.00000000E+00
  0.00000000E+00  0.00000000E+00  0.00000000E+00
  0.00000000E+00  0.00000000E+00  0.00000000E+00
  0.00000000E+00  0.00000000E+00  0.00000000E+00
  0.00000000E+00  0.00000000E+00  0.00000000E+00
  0.00000000E+00  0.00000000E+00  0.00000000E+00
  0.00000000E+00  0.00000000E+00  0.00000000E+00
  0.00000000E+00  0.00000000E+00  0.00000000E+00
  0.00000000E+00  0.00000000E+00  0.00000000E+00
  0.00000000E+00  0.00000000E+00  0.00000000E+00
  0.00000000E+00  0.00000000E+00  0.00000000E+00
  0.00000000E+00  0.00000000E+00  0.00000000E+00
  0.00000000E+00  0.00000000E+00  0.00000000E+00
  0.00000000E+00  0.00000000E+00  0.00000000E+00
  0.00000000E+00  0.00000000E+00  0.00000000E+00
  0.00000000E+00  0.00000000E+00  0.00000000E+00
