total                                   
   1.00000000000000     
     8.4506998061999994    0.0000000000000000    0.0000000000000000
    -4.2253499030999997    7.3185207118999998    0.0000000000000000
     0.0000000000000000    0.0000000000000000   24.2000007629000002
   Ir   Pd   Pt   Rh   Ru   H 
     9     9     9     9     9     1
Direct
  0.9783630722059911  0.0050721852705538  0.0062624938977408
  0.4701336886806426  0.0078422941468092  0.0084660436299723
  0.0653179133074115  0.1962438067787965  0.3183578974046811
  0.6035325466456090  0.7641406711118474  0.2910645855536977
  0.4198483958187981  0.3975314866049856  0.3272264222303413
  0.8336244449717817  0.6803931021342454  0.0431135723566131
  0.2446048492007898  0.0488235692248437  0.3601691873861432
  0.4638909662916688  0.4775760311608239  0.2147892888443271
  0.8932940891888658  0.8460692186697416  0.3531200002505873
  0.6368657695366780  0.8338086623381328  0.1748022516291083
  0.9419232150329118  0.9685672723949464  0.1171970313218470
  0.4991016835879752  0.5469925473420746  0.0894788034880364
  0.1384616432306898  0.8415556336785088  0.1736512062629804
  0.7850990867602700  0.1289370388104409  0.2520657530102958
  0.3353659806266293  0.2319836930910557  0.0088348097438357
  0.6338260106629213  0.3254173298055869  0.0714908670478425
  0.1326857593190651  0.3245544317339515  0.0718651523246579
  0.2837748517146283  0.6110892070677632  0.1566567997479920
  0.9241048020676320  0.9040124247323205  0.2372134692839410
  0.1073136738114516  0.2630427287200440  0.1948954991328830
  0.9583421950139767  0.4886577186312672  0.2164995578836007
  0.0692460575068747  0.6979060160910482  0.3964390457153313
  0.5980288469443678  0.2662295181346420  0.1961685986583533
  0.2433575971844190  0.5517787958374630  0.2765678893938742
  0.2155007971360916  0.4810379800301904  0.3911387596601509
  0.4215167722738083  0.9098957679483167  0.2377113573243905
  0.4646065157521441  0.9694157886208850  0.1176616928331682
  0.1708349337459790  0.9009762580069699  0.0614984545408037
  0.9847106475071591  0.5418227851567866  0.1066530404333298
  0.6170953020969637  0.7927730992752620  0.0086549499565121
  0.2836688841480066  0.6768203055396604  0.0407354840389750
  0.7075282884904491  0.4837624034679530  0.3862717081221065
  0.3946367554572083  0.8476105064210859  0.3533466926003302
  0.9428876735876607  0.4476520264049127  0.0084821721893249
  0.8221737100181076  0.2054030259986989  0.1381013363543993
  0.5724448189924859  0.2012780624703772  0.3173083029441244
  0.7463175521265483  0.5527350797369197  0.2792950578642074
  0.7813806578486059  0.1183282249592063  0.0393271256657281
  0.5770474253804697  0.7066063972059883  0.3944779096810453
  0.2826200386786100  0.1283702784037304  0.2494054883557445
  0.1015423261186015  0.7703005107433533  0.2900389575362192
  0.9177683997650158  0.3992028756049713  0.3316798580505548
  0.3185455498252047  0.1920698174602035  0.1340514720076768
  0.7693736432326405  0.6155233822648883  0.1606747548132828
  0.7441587744588115  0.0462349933725651  0.3628090535627065
  0.6706433830473766 -0.0721949606048108  0.4270902062665203
 
  0.00000000E+00  0.00000000E+00  0.00000000E+00
  0.00000000E+00  0.00000000E+00  0.00000000E+00
  0.00000000E+00  0.00000000E+00  0.00000000E+00
  0.00000000E+00  0.00000000E+00  0.00000000E+00
  0.00000000E+00  0.00000000E+00  0.00000000E+00
  0.00000000E+00  0.00000000E+00  0.00000000E+00
  0.00000000E+00  0.00000000E+00  0.00000000E+00
  0.00000000E+00  0.00000000E+00  0.00000000E+00
  0.00000000E+00  0.00000000E+00  0.00000000E+00
  0.00000000E+00  0.00000000E+00  0.00000000E+00
  0.00000000E+00  0.00000000E+00  0.00000000E+00
  0.00000000E+00  0.00000000E+00  0.00000000E+00
  0.00000000E+00  0.00000000E+00  0.00000000E+00
  0.00000000E+00  0.00000000E+00  0.00000000E+00
  0.00000000E+00  0.00000000E+00  0.00000000E+00
  0.00000000E+00  0.00000000E+00  0.00000000E+00
  0.00000000E+00  0.00000000E+00  0.00000000E+00
  0.00000000E+00  0.00000000E+00  0.00000000E+00
  0.00000000E+00  0.00000000E+00  0.00000000E+00
  0.00000000E+00  0.00000000E+00  0.00000000E+00
  0.00000000E+00  0.00000000E+00  0.00000000E+00
  0.00000000E+00  0.00000000E+00  0.00000000E+00
  0.00000000E+00  0.00000000E+00  0.00000000E+00
  0.00000000E+00  0.00000000E+00  0.00000000E+00
  0.00000000E+00  0.00000000E+00  0.00000000E+00
  0.00000000E+00  0.00000000E+00  0.00000000E+00
  0.00000000E+00  0.00000000E+00  0.00000000E+00
  0.00000000E+00  0.00000000E+00  0.00000000E+00
  0.00000000E+00  0.00000000E+00  0.00000000E+00
  0.00000000E+00  0.00000000E+00  0.00000000E+00
  0.00000000E+00  0.00000000E+00  0.00000000E+00
  0.00000000E+00  0.00000000E+00  0.00000000E+00
  0.00000000E+00  0.00000000E+00  0.00000000E+00
  0.00000000E+00  0.00000000E+00  0.00000000E+00
  0.00000000E+00  0.00000000E+00  0.00000000E+00
  0.00000000E+00  0.00000000E+00  0.00000000E+00
  0.00000000E+00  0.00000000E+00  0.00000000E+00
  0.00000000E+00  0.00000000E+00  0.00000000E+00
  0.00000000E+00  0.00000000E+00  0.00000000E+00
  0.00000000E+00  0.00000000E+00  0.00000000E+00
  0.00000000E+00  0.00000000E+00  0.00000000E+00
  0.00000000E+00  0.00000000E+00  0.00000000E+00
  0.00000000E+00  0.00000000E+00  0.00000000E+00
  0.00000000E+00  0.00000000E+00  0.00000000E+00
  0.00000000E+00  0.00000000E+00  0.00000000E+00
  0.00000000E+00  0.00000000E+00  0.00000000E+00
