step                                    
   1.00000000000000     
     8.4506998061999994    0.0000000000000000    0.0000000000000000
    -4.2253499030999997    7.3185207118999998    0.0000000000000000
     0.0000000000000000    0.0000000000000000   24.2000007629000002
   Ir   Pd   Pt   Rh   Ru   H 
    10     9    10     9    10     1
Direct
  0.9951509614023939  0.0069494946016355  0.1263083376358534
  0.1096428392879016  0.2131255685639021  0.2153822311646732
  0.5643509513971902  0.1235082397604351  0.0397971436020511
  0.2424284144283637  0.4563498493743032  0.0404689726138487
  0.5492555337399354  0.4423369818923798  0.0395013098168986
  0.3337201093545875  0.6741002030503024  0.1248528053321856
  0.3224855744998577  0.6751220673454756  0.3975264276819964
  0.5544630238331181  0.7806984487844668  0.0391995935095819
  0.6641131693800266  0.6694430955536930  0.1277755914110940
  0.8104119948980917  0.5683329942893287  0.4699619582107395
  0.2197377527669512  0.1187116075096288  0.0346863044975644
  0.2192314121221788  0.1109894823031032  0.3068961862836395
  0.7742016216116439  0.2263091979060990  0.2167926606642501
  0.0086109711966004  0.3334812696388612  0.4039763177500408
  0.1072899316102629  0.5590442151561255  0.2166223648908294
  0.3277236786036013  0.3253184176393283  0.4022422736102980
  0.8827633002713577  0.4425240557257260  0.0344323302674511
  0.8841512226966137  0.4476960613608360  0.3120994472029563
  0.2267834448219301  0.7814525436018157  0.0344440860320997
  0.3234156975170528 -0.0042603878183077  0.4004147111045585
  0.8853556421745929  0.1065901596683742  0.3090026172714966
  0.2159370074617324  0.4450735835955986  0.3083481549655979
  0.5580945776471019  0.4450801841058394  0.3074438523520827
  0.4414419564229813  0.5531185131915990  0.2146944192248709
  0.9950717255697988  0.6657933875620466  0.1271217723567495
  0.5505812429612063  0.7857307632159183  0.3060473381884039
  0.4496595294248721  0.8991329712689518  0.2149452963656482
  0.6399861071447795  0.6637480792302927  0.3972037667302385
  0.8106197345541143  0.8811894544704225  0.4823094823837419
  0.3385111024376033  0.0102095058646169  0.1284499595420610
  0.5544169502181986  0.1135768979568297  0.3093085821663570
  0.6546500451617122 -0.0006845266304554  0.4055933310552123
  0.8724876943929297  0.1038205598231026  0.0368676811934256
  0.0013749121161131  0.3297106430670136  0.1256765584172192
  0.2163196444522353  0.7810912361344691  0.3061371182881445
  0.1040433824378711  0.8948186967445165  0.2150508405317089
  0.8687452543483257  0.7799596719663107  0.0384533896979499
  0.8930674111178803  0.7810009819672443  0.3075363873131632
  0.9960351902954748  0.9830901879023944  0.3964878738312838
  0.4527062610076255  0.2360274064369723  0.2143861697221097
  0.6691620105573123  0.0032465216877745  0.1244638858854453
  0.3295880946242186  0.3261527843304944  0.1279882935952066
  0.6522115627231274  0.3324020584323920  0.1272418032731095
  0.6318441120970237  0.3008183654499033  0.4000032969711136
  0.7631607036731246  0.5582064393692665  0.2150655440670277
  0.0180071532957986  0.6887282976395851  0.3972478103181609
  0.7892442423964580  0.8911243162964646  0.2146105717372237
  0.7784044136426708  0.2651662043152253  0.4782979963123143
  0.2892204992034420  0.6546128886976946  0.4626751559603192
 
  0.00000000E+00  0.00000000E+00  0.00000000E+00
  0.00000000E+00  0.00000000E+00  0.00000000E+00
  0.00000000E+00  0.00000000E+00  0.00000000E+00
  0.00000000E+00  0.00000000E+00  0.00000000E+00
  0.00000000E+00  0.00000000E+00  0.00000000E+00
  0.00000000E+00  0.00000000E+00  0.00000000E+00
  0.00000000E+00  0.00000000E+00  0.00000000E+00
  0.00000000E+00  0.00000000E+00  0.00000000E+00
  0.00000000E+00  0.00000000E+00  0.00000000E+00
  0.00000000E+00  0.00000000E+00  0.00000000E+00
  0.00000000E+00  0.00000000E+00  0.00000000E+00
  0.00000000E+00  0.00000000E+00  0.00000000E+00
  0.00000000E+00  0.00000000E+00  0.00000000E+00
  0.00000000E+00  0.00000000E+00  0.00000000E+00
  0.00000000E+00  0.00000000E+00  0.00000000E+00
  0.00000000E+00  0.00000000E+00  0.00000000E+00
  0.00000000E+00  0.00000000E+00  0.00000000E+00
  0.00000000E+00  0.00000000E+00  0.00000000E+00
  0.00000000E+00  0.00000000E+00  0.00000000E+00
  0.00000000E+00  0.00000000E+00  0.00000000E+00
  0.00000000E+00  0.00000000E+00  0.00000000E+00
  0.00000000E+00  0.00000000E+00  0.00000000E+00
  0.00000000E+00  0.00000000E+00  0.00000000E+00
  0.00000000E+00  0.00000000E+00  0.00000000E+00
  0.00000000E+00  0.00000000E+00  0.00000000E+00
  0.00000000E+00  0.00000000E+00  0.00000000E+00
  0.00000000E+00  0.00000000E+00  0.00000000E+00
  0.00000000E+00  0.00000000E+00  0.00000000E+00
  0.00000000E+00  0.00000000E+00  0.00000000E+00
  0.00000000E+00  0.00000000E+00  0.00000000E+00
  0.00000000E+00  0.00000000E+00  0.00000000E+00
  0.00000000E+00  0.00000000E+00  0.00000000E+00
  0.00000000E+00  0.00000000E+00  0.00000000E+00
  0.00000000E+00  0.00000000E+00  0.00000000E+00
  0.00000000E+00  0.00000000E+00  0.00000000E+00
  0.00000000E+00  0.00000000E+00  0.00000000E+00
  0.00000000E+00  0.00000000E+00  0.00000000E+00
  0.00000000E+00  0.00000000E+00  0.00000000E+00
  0.00000000E+00  0.00000000E+00  0.00000000E+00
  0.00000000E+00  0.00000000E+00  0.00000000E+00
  0.00000000E+00  0.00000000E+00  0.00000000E+00
  0.00000000E+00  0.00000000E+00  0.00000000E+00
  0.00000000E+00  0.00000000E+00  0.00000000E+00
  0.00000000E+00  0.00000000E+00  0.00000000E+00
  0.00000000E+00  0.00000000E+00  0.00000000E+00
  0.00000000E+00  0.00000000E+00  0.00000000E+00
  0.00000000E+00  0.00000000E+00  0.00000000E+00
  0.00000000E+00  0.00000000E+00  0.00000000E+00
  0.00000000E+00  0.00000000E+00  0.00000000E+00
