hRu3Pd2Pt1                              
   1.00000000000000     
     8.4506998061999994    0.0000000000000000    0.0000000000000000
    -4.2253499030999997    7.3185207118999998    0.0000000000000000
     0.0000000000000000    0.0000000000000000   24.2000007629000002
   Ir   Pd   Pt   Rh   Ru   H 
     9     9     9     9     9     1
Direct
  0.9967748411946911  0.0047979755139999  0.1260141037998732
  0.1110380254889284  0.2103303086261535  0.2154805141632663
  0.5652568661499910  0.1203852331536273  0.0396742554110526
  0.2428777387115925  0.4529559610981159  0.0404866983147414
  0.5501203355498404  0.4397771784393821  0.0392618451845901
  0.3375073176531947  0.6719955582850731  0.1250650627295622
  0.3277000626515680  0.6762119433083376  0.3950949265178179
  0.5558731435814276  0.7777653562275438  0.0385169446181060
  0.6651631980728965  0.6685319296227240  0.1273945923236592
  0.2223608922431546  0.1156103861867790  0.0344560151327955
  0.2229936604576870  0.1091374544051100  0.3071387765011760
  0.7751177661815989  0.2219757991916971  0.2156868361449284
  0.9939355577010710  0.3352556316625898  0.4028770616869919
  0.1118468893692951  0.5589207757336859  0.2157702796810784
  0.3370375930505204  0.3396323537336501  0.4026019580517447
  0.8840664478357624  0.4401502781229251  0.0343177228032775
  0.8907347038772837  0.4475163914698013  0.3070230740521811
  0.2284325670039007  0.7789228689620177  0.0342875714828028
  0.3342357823801098 -0.0012409310590566  0.4024032711815977
  0.8911412026665453  0.1094549184782781  0.3082842282900481
  0.2198477577736417  0.4434315168228378  0.3078036532109778
  0.5593772692825385  0.4413478265755068  0.3060692362357786
  0.4456284146124211  0.5503640209621392  0.2152713045597469
  0.9969045135187344  0.6641560986988377  0.1264313914043797
  0.5575162284557900  0.7808587838695636  0.3053136431350383
  0.4488702226618509  0.8974970930091642  0.2160312458145013
  0.6712103997093757  0.6635435943024454  0.3987113726153815
  0.3401320913593360  0.0075044597770341  0.1288159803784681
  0.5566626398857304  0.1134169305671701  0.3110375922263472
  0.6643032945746469  0.9917024232460155  0.3974330679662935
  0.8755398673075320  0.1025360135274217  0.0368456201330958
  0.0030978639441053  0.3273070383714374  0.1255183789099656
  0.2218770247596518  0.7809495234571521  0.3084368549913674
  0.1040132102320939  0.8899658211044024  0.2151850380118069
  0.8702634618559837  0.7766794682229845  0.0381048714364587
  0.8958305633407894  0.7786314613736068  0.3059433367544633
 -0.0157082073513685  0.9759050799243040  0.3960811368521899
  0.4521200433175744  0.2320941899212411  0.2146331052524427
  0.6691840341823398  0.9995388645764676  0.1236844521146831
  0.3320785991972643  0.3246857213429719  0.1276329862045633
  0.6522742303397235  0.3288380625204451  0.1269537336169628
  0.6715187867431848  0.3391852030477129  0.3940512813873392
  0.7667913188976766  0.5557308087115126  0.2138241053279352
  0.0033684270902656  0.6755122817313276  0.3933263619082384
  0.7904910636220424  0.8887946450833900  0.2152874512228495
  0.2101920068660004  0.0985252890904685  0.4335570692574334
 
  0.00000000E+00  0.00000000E+00  0.00000000E+00
  0.00000000E+00  0.00000000E+00  0.00000000E+00
  0.00000000E+00  0.00000000E+00  0.00000000E+00
  0.00000000E+00  0.00000000E+00  0.00000000E+00
  0.00000000E+00  0.00000000E+00  0.00000000E+00
  0.00000000E+00  0.00000000E+00  0.00000000E+00
  0.00000000E+00  0.00000000E+00  0.00000000E+00
  0.00000000E+00  0.00000000E+00  0.00000000E+00
  0.00000000E+00  0.00000000E+00  0.00000000E+00
  0.00000000E+00  0.00000000E+00  0.00000000E+00
  0.00000000E+00  0.00000000E+00  0.00000000E+00
  0.00000000E+00  0.00000000E+00  0.00000000E+00
  0.00000000E+00  0.00000000E+00  0.00000000E+00
  0.00000000E+00  0.00000000E+00  0.00000000E+00
  0.00000000E+00  0.00000000E+00  0.00000000E+00
  0.00000000E+00  0.00000000E+00  0.00000000E+00
  0.00000000E+00  0.00000000E+00  0.00000000E+00
  0.00000000E+00  0.00000000E+00  0.00000000E+00
  0.00000000E+00  0.00000000E+00  0.00000000E+00
  0.00000000E+00  0.00000000E+00  0.00000000E+00
  0.00000000E+00  0.00000000E+00  0.00000000E+00
  0.00000000E+00  0.00000000E+00  0.00000000E+00
  0.00000000E+00  0.00000000E+00  0.00000000E+00
  0.00000000E+00  0.00000000E+00  0.00000000E+00
  0.00000000E+00  0.00000000E+00  0.00000000E+00
  0.00000000E+00  0.00000000E+00  0.00000000E+00
  0.00000000E+00  0.00000000E+00  0.00000000E+00
  0.00000000E+00  0.00000000E+00  0.00000000E+00
  0.00000000E+00  0.00000000E+00  0.00000000E+00
  0.00000000E+00  0.00000000E+00  0.00000000E+00
  0.00000000E+00  0.00000000E+00  0.00000000E+00
  0.00000000E+00  0.00000000E+00  0.00000000E+00
  0.00000000E+00  0.00000000E+00  0.00000000E+00
  0.00000000E+00  0.00000000E+00  0.00000000E+00
  0.00000000E+00  0.00000000E+00  0.00000000E+00
  0.00000000E+00  0.00000000E+00  0.00000000E+00
  0.00000000E+00  0.00000000E+00  0.00000000E+00
  0.00000000E+00  0.00000000E+00  0.00000000E+00
  0.00000000E+00  0.00000000E+00  0.00000000E+00
  0.00000000E+00  0.00000000E+00  0.00000000E+00
  0.00000000E+00  0.00000000E+00  0.00000000E+00
  0.00000000E+00  0.00000000E+00  0.00000000E+00
  0.00000000E+00  0.00000000E+00  0.00000000E+00
  0.00000000E+00  0.00000000E+00  0.00000000E+00
  0.00000000E+00  0.00000000E+00  0.00000000E+00
  0.00000000E+00  0.00000000E+00  0.00000000E+00
