step                                    
   1.00000000000000     
     8.4506998061999994    0.0000000000000000    0.0000000000000000
    -4.2253499030999997    7.3185207118999998    0.0000000000000000
     0.0000000000000000    0.0000000000000000   24.2000007629000002
   Ir   Pd   Pt   Rh   Ru   H 
     9    10    10    10     9     1
Direct
  0.5581390611321435  0.1118025890692711  0.0399380316088601
  0.5504572509850347  0.1169421309446712  0.3098091806087517
  0.7758340550478907  0.2328774110155446  0.2178521574713249
  0.0222028546413421  0.3520255753704636  0.3977112995887618
  0.3273282388999328  0.3335152832741499  0.1270607064056251
  0.8770457001538203  0.4451285152454738  0.3074305309602036
  0.9986499845097337  0.6618758045404897  0.1260863838520292
  0.3309143243302350  0.6594325830992429  0.3928692139495783
  0.8901885028398049  0.7813822066974844  0.3071011101583115
  0.0039084895188778  0.0099392959078145  0.4000406092922008
  0.2270465106578846  0.1186555048972885  0.0325460035722875
  0.3340649882151441  0.0017838530302444  0.4027048515601572
  0.6540345345635940 -0.0018430850407369  0.4009718665455050
  0.2280999203015243  0.4484656698132898  0.3040217384455950
  0.8907760827355865  0.4457780562252361  0.0334187240402930
  0.1094837959301157  0.8888922205114683  0.2166947618576199
  0.4517015890610666  0.8928149804955626  0.2178179111125362
  0.7768256697844820  0.8936303805383006  0.2174511817868006
  0.7801516843011617  0.8860229747541614  0.4864821263418656
  0.0042331532503050  0.0084828858208752  0.1267970001595430
  0.8898843563941923  0.1151049333817494  0.3074449792549729
  0.1033250201759493  0.5510251621544174  0.2168109971512093
  0.0101315699085298  0.6673554860264150  0.3983167994934003
  0.3341509097404102  0.6704677386988624  0.1287120104315520
  0.5568931379073363  0.7850266805957454  0.0362816617175644
  0.6692087385279677  0.6679003994928774  0.1284231839580652
  0.6546281485860374  0.6623867273365277  0.3985007086744515
  0.8894791604001037  0.7766753094978954  0.0365651236287035
  0.7928712203082033  0.5600062765085663  0.4829712617236460
  0.3383426314789871  0.0073868035390034  0.1265323643056326
  0.4451596450098841  0.2349920906503538  0.2181772725104373
  0.8845874796464044  0.1213843511820070  0.0383422406040034
  0.3338683265017369  0.3395776174519178  0.3954665020678957
  0.5459048506268883  0.4395593654670311  0.0384625154061006
  0.5623563802622453  0.4507125485562337  0.3071406847900034
  0.6696324734878280  0.3326765210247336  0.1282296808216740
  0.2289520865682890  0.7788282329677931  0.0386196268127804
  0.2257030671997125  0.7926771988249164  0.3093981827219417
  0.8232720462620894  0.2644958538109700  0.4763457538260978
  0.2199470159221520  0.1034397857183308  0.3067439677021696
  0.1276684672681203  0.2364532991398017  0.2168720372065408
  0.6797056030256244  0.0254091103544194  0.1259165335083386
  0.9979106545288358  0.3263352324527747  0.1269228398026395
  0.2277021566809303  0.4493113118698761  0.0420351903553524
  0.4505121266467085  0.5484743221911269  0.2160148190331292
  0.6603323477257418  0.3365910595721658  0.3976473456402123
  0.7678440163183957  0.5483728565328480  0.2178090232433461
  0.5619260731485406  0.7801534102858109  0.3085146247909286
  0.4279738918824753  0.2285749575045329  0.4355766884993539
 
  0.00000000E+00  0.00000000E+00  0.00000000E+00
  0.00000000E+00  0.00000000E+00  0.00000000E+00
  0.00000000E+00  0.00000000E+00  0.00000000E+00
  0.00000000E+00  0.00000000E+00  0.00000000E+00
  0.00000000E+00  0.00000000E+00  0.00000000E+00
  0.00000000E+00  0.00000000E+00  0.00000000E+00
  0.00000000E+00  0.00000000E+00  0.00000000E+00
  0.00000000E+00  0.00000000E+00  0.00000000E+00
  0.00000000E+00  0.00000000E+00  0.00000000E+00
  0.00000000E+00  0.00000000E+00  0.00000000E+00
  0.00000000E+00  0.00000000E+00  0.00000000E+00
  0.00000000E+00  0.00000000E+00  0.00000000E+00
  0.00000000E+00  0.00000000E+00  0.00000000E+00
  0.00000000E+00  0.00000000E+00  0.00000000E+00
  0.00000000E+00  0.00000000E+00  0.00000000E+00
  0.00000000E+00  0.00000000E+00  0.00000000E+00
  0.00000000E+00  0.00000000E+00  0.00000000E+00
  0.00000000E+00  0.00000000E+00  0.00000000E+00
  0.00000000E+00  0.00000000E+00  0.00000000E+00
  0.00000000E+00  0.00000000E+00  0.00000000E+00
  0.00000000E+00  0.00000000E+00  0.00000000E+00
  0.00000000E+00  0.00000000E+00  0.00000000E+00
  0.00000000E+00  0.00000000E+00  0.00000000E+00
  0.00000000E+00  0.00000000E+00  0.00000000E+00
  0.00000000E+00  0.00000000E+00  0.00000000E+00
  0.00000000E+00  0.00000000E+00  0.00000000E+00
  0.00000000E+00  0.00000000E+00  0.00000000E+00
  0.00000000E+00  0.00000000E+00  0.00000000E+00
  0.00000000E+00  0.00000000E+00  0.00000000E+00
  0.00000000E+00  0.00000000E+00  0.00000000E+00
  0.00000000E+00  0.00000000E+00  0.00000000E+00
  0.00000000E+00  0.00000000E+00  0.00000000E+00
  0.00000000E+00  0.00000000E+00  0.00000000E+00
  0.00000000E+00  0.00000000E+00  0.00000000E+00
  0.00000000E+00  0.00000000E+00  0.00000000E+00
  0.00000000E+00  0.00000000E+00  0.00000000E+00
  0.00000000E+00  0.00000000E+00  0.00000000E+00
  0.00000000E+00  0.00000000E+00  0.00000000E+00
  0.00000000E+00  0.00000000E+00  0.00000000E+00
  0.00000000E+00  0.00000000E+00  0.00000000E+00
  0.00000000E+00  0.00000000E+00  0.00000000E+00
  0.00000000E+00  0.00000000E+00  0.00000000E+00
  0.00000000E+00  0.00000000E+00  0.00000000E+00
  0.00000000E+00  0.00000000E+00  0.00000000E+00
  0.00000000E+00  0.00000000E+00  0.00000000E+00
  0.00000000E+00  0.00000000E+00  0.00000000E+00
  0.00000000E+00  0.00000000E+00  0.00000000E+00
  0.00000000E+00  0.00000000E+00  0.00000000E+00
  0.00000000E+00  0.00000000E+00  0.00000000E+00
