5L_3x3_(1\1\1)                          
   1.00000000000000     
     8.4506998061999994    0.0000000000000000    0.0000000000000000
    -4.2253499030999997    7.3185207118999998    0.0000000000000000
     0.0000000000000000    0.0000000000000000   24.2000007629000002
   Ir   Pd   Pt   Rh   Ru   H 
     8     9     9     9     9     1
Direct
  0.5548524451282185  0.1065298843314536  0.0394569869248497
  0.5504226530226684  0.1110166807812681  0.3082212849484068
  0.7756653520242156  0.2287125822100536  0.2170258758231301
  0.3233735174407978  0.3309735193100458  0.1273066462999548
  0.8721844490552176  0.4378545903592177  0.3064673624634592
  0.9971777950703941  0.6564183597111978  0.1258285860608404
  0.3446609909535789  0.6715841511323883  0.3914548075864999
  0.8895800995680170  0.7760850650886881  0.3063314158247814
  0.0062413732322953 -0.0017653472402593  0.3966618821642847
  0.2259299100129574  0.1145305358706812  0.0321265667718251
  0.3366443161934841  0.0000665568876692  0.4009000673995173
  0.6628392901259704  0.0024635865263776  0.3987828957338617
  0.2120936303337461  0.4368028406993064  0.3078846494181830
  0.8889135152055475  0.4427122601455483  0.0332002217370023
  0.1083989079144639  0.8838449191919391  0.2159919718272819
  0.4509917844039358  0.8901974486659342  0.2172003515577492
  0.7755943650825344  0.8865897996403822  0.2165541367553717
  0.0031399173734574  0.0058539513875316  0.1264261534523050
  0.8855626041907796  0.1090210350232447  0.3070144062962246
  0.1020595960194311  0.5461839038387553  0.2170620850093944
  0.0034613527837789  0.6441338746530147  0.3953305293221855
  0.3311912844030643  0.6663840996915015  0.1281231321823832
  0.5563282513301249  0.7810562942416136  0.0359751653167126
  0.6635292135920617  0.6613523433568707  0.1288524396821127
  0.6655537473555908  0.6672754139914271  0.3979583740279676
  0.8867696741871279  0.7721012827198656  0.0369895362201145
  0.3377584171702611  0.0050064232753802  0.1265723795506602
  0.4432113919658447  0.2314687620461666  0.2174907275362059
  0.8824039485485788  0.1182347292711664  0.0378255924834689
  0.3471267250124841  0.3385522905044758  0.3948126706196426
  0.5438445579408812  0.4380197194731875  0.0387068863173129
  0.5551136451065515  0.4428247426931331  0.3056534363549121
  0.6685565872929653  0.3287671751688282  0.1275985610848746
  0.2268933075383779  0.7775495795421323  0.0380692024462903
  0.2272384592097351  0.7864964210309121  0.3084747984791255
  0.2221495977590588  0.1044570343386375  0.3061814954333631
  0.1243488013731389  0.2311756403310805  0.2175300695585474
  0.6770250465206680  0.0208719400144868  0.1253870514958104
  0.9963129641891993  0.3227692433599592  0.1265676060705647
  0.2263172362551837  0.4452429069596875  0.0416638682219915
  0.4466886989544639  0.5446224647377209  0.2185167761340941
  0.6627584122517041  0.3357751920234867  0.3932857156403401
  0.7673225601352172  0.5464228832524624  0.2176632545335657
  0.5587010222363873  0.7746940378013929  0.3062458419400219
  0.5612098601383452  0.4548498439919680  0.4373217468816332
 
  0.00000000E+00  0.00000000E+00  0.00000000E+00
  0.00000000E+00  0.00000000E+00  0.00000000E+00
  0.00000000E+00  0.00000000E+00  0.00000000E+00
  0.00000000E+00  0.00000000E+00  0.00000000E+00
  0.00000000E+00  0.00000000E+00  0.00000000E+00
  0.00000000E+00  0.00000000E+00  0.00000000E+00
  0.00000000E+00  0.00000000E+00  0.00000000E+00
  0.00000000E+00  0.00000000E+00  0.00000000E+00
  0.00000000E+00  0.00000000E+00  0.00000000E+00
  0.00000000E+00  0.00000000E+00  0.00000000E+00
  0.00000000E+00  0.00000000E+00  0.00000000E+00
  0.00000000E+00  0.00000000E+00  0.00000000E+00
  0.00000000E+00  0.00000000E+00  0.00000000E+00
  0.00000000E+00  0.00000000E+00  0.00000000E+00
  0.00000000E+00  0.00000000E+00  0.00000000E+00
  0.00000000E+00  0.00000000E+00  0.00000000E+00
  0.00000000E+00  0.00000000E+00  0.00000000E+00
  0.00000000E+00  0.00000000E+00  0.00000000E+00
  0.00000000E+00  0.00000000E+00  0.00000000E+00
  0.00000000E+00  0.00000000E+00  0.00000000E+00
  0.00000000E+00  0.00000000E+00  0.00000000E+00
  0.00000000E+00  0.00000000E+00  0.00000000E+00
  0.00000000E+00  0.00000000E+00  0.00000000E+00
  0.00000000E+00  0.00000000E+00  0.00000000E+00
  0.00000000E+00  0.00000000E+00  0.00000000E+00
  0.00000000E+00  0.00000000E+00  0.00000000E+00
  0.00000000E+00  0.00000000E+00  0.00000000E+00
  0.00000000E+00  0.00000000E+00  0.00000000E+00
  0.00000000E+00  0.00000000E+00  0.00000000E+00
  0.00000000E+00  0.00000000E+00  0.00000000E+00
  0.00000000E+00  0.00000000E+00  0.00000000E+00
  0.00000000E+00  0.00000000E+00  0.00000000E+00
  0.00000000E+00  0.00000000E+00  0.00000000E+00
  0.00000000E+00  0.00000000E+00  0.00000000E+00
  0.00000000E+00  0.00000000E+00  0.00000000E+00
  0.00000000E+00  0.00000000E+00  0.00000000E+00
  0.00000000E+00  0.00000000E+00  0.00000000E+00
  0.00000000E+00  0.00000000E+00  0.00000000E+00
  0.00000000E+00  0.00000000E+00  0.00000000E+00
  0.00000000E+00  0.00000000E+00  0.00000000E+00
  0.00000000E+00  0.00000000E+00  0.00000000E+00
  0.00000000E+00  0.00000000E+00  0.00000000E+00
  0.00000000E+00  0.00000000E+00  0.00000000E+00
  0.00000000E+00  0.00000000E+00  0.00000000E+00
  0.00000000E+00  0.00000000E+00  0.00000000E+00
